&PROJWFC
    prefix = 'qewan'
    outdir = 'tests/flows/Fe-bcc/qewan_nscf'
    lsym = .false.
    lwrite_overlaps = .false.
    filproj = 'qewan.bands.dat.proj'
    fillowdin = 'lowdin.txt'
/
