
&CONTROL
    calculation = 'bands'
    prefix = 'qewan'
    outdir = './tmp'
    pseudo_dir = './pseudos'
/
&SYSTEM
    ibrav = 0
    nat = 5
    ntyp = 3
    ecutwfc = 40.0
    ecutrho = 160.0
    occupations = 'smearing'
    smearing = 'mv'
    degauss = 0.02
    nspin = 2
    starting_magnetization(1) = 0.0
    starting_magnetization(2) = 0.0
    starting_magnetization(3) = 0.0
/ 
&ELECTRONS
    conv_thr = 1.0d-8
/

CELL_PARAMETERS angstrom
      3.8060000000     0.0000000000     0.0000000000
      0.0000000000     3.8060000000     0.0000000000
      0.0000000000     0.0000000000     3.8060000000

ATOMIC_SPECIES
Sr Sr.UPF
Mn Mn.UPF
O O.UPF

ATOMIC_POSITIONS crystal
Sr     0.0000000000     0.0000000000     0.0000000000
Mn     0.5000000000     0.5000000000     0.5000000000
O     0.0000000000     0.5000000000     0.5000000000
O     0.5000000000     0.0000000000     0.5000000000
O     0.5000000000     0.5000000000     0.0000000000

K_POINTS crystal_b
61
0.00000000 0.00000000 0.00000000 1
0.00000000 0.05000000 0.00000000 1
0.00000000 0.10000000 0.00000000 1
0.00000000 0.15000000 0.00000000 1
0.00000000 0.20000000 0.00000000 1
0.00000000 0.25000000 0.00000000 1
0.00000000 0.30000000 0.00000000 1
0.00000000 0.35000000 0.00000000 1
0.00000000 0.40000000 0.00000000 1
0.00000000 0.45000000 0.00000000 1
0.00000000 0.50000000 0.00000000 1
0.05000000 0.50000000 0.00000000 1
0.10000000 0.50000000 0.00000000 1
0.15000000 0.50000000 0.00000000 1
0.20000000 0.50000000 0.00000000 1
0.25000000 0.50000000 0.00000000 1
0.30000000 0.50000000 0.00000000 1
0.35000000 0.50000000 0.00000000 1
0.40000000 0.50000000 0.00000000 1
0.45000000 0.50000000 0.00000000 1
0.50000000 0.50000000 0.00000000 1
0.45000000 0.45000000 0.00000000 1
0.40000000 0.40000000 0.00000000 1
0.35000000 0.35000000 0.00000000 1
0.30000000 0.30000000 0.00000000 1
0.25000000 0.25000000 0.00000000 1
0.20000000 0.20000000 0.00000000 1
0.15000000 0.15000000 0.00000000 1
0.10000000 0.10000000 0.00000000 1
0.05000000 0.05000000 0.00000000 1
0.00000000 0.00000000 0.00000000 1
0.05000000 0.05000000 0.05000000 1
0.10000000 0.10000000 0.10000000 1
0.15000000 0.15000000 0.15000000 1
0.20000000 0.20000000 0.20000000 1
0.25000000 0.25000000 0.25000000 1
0.30000000 0.30000000 0.30000000 1
0.35000000 0.35000000 0.35000000 1
0.40000000 0.40000000 0.40000000 1
0.45000000 0.45000000 0.45000000 1
0.50000000 0.50000000 0.50000000 1
0.45000000 0.50000000 0.45000000 1
0.40000000 0.50000000 0.40000000 1
0.35000000 0.50000000 0.35000000 1
0.30000000 0.50000000 0.30000000 1
0.25000000 0.50000000 0.25000000 1
0.20000000 0.50000000 0.20000000 1
0.15000000 0.50000000 0.15000000 1
0.10000000 0.50000000 0.10000000 1
0.05000000 0.50000000 0.05000000 1
0.50000000 0.50000000 0.50000000 1
0.50000000 0.50000000 0.45000000 1
0.50000000 0.50000000 0.40000000 1
0.50000000 0.50000000 0.35000000 1
0.50000000 0.50000000 0.30000000 1
0.50000000 0.50000000 0.25000000 1
0.50000000 0.50000000 0.20000000 1
0.50000000 0.50000000 0.15000000 1
0.50000000 0.50000000 0.10000000 1
0.50000000 0.50000000 0.05000000 1
0.50000000 0.50000000 0.00000000 1

