
&CONTROL
    calculation = 'bands'
    prefix = 'qewan'
    outdir = './tmp'
    pseudo_dir = '/home/vinicius/scratch/data/pseudos/SSSP_1.3.0_PBE_efficiency'
/
&SYSTEM
    ibrav = 0
    nat = 1
    ntyp = 1
    ecutwfc = 40.0
    ecutrho = 320.0
    occupations = 'smearing'
    smearing = 'mv'
    degauss = 0.02
    nspin = 1
/ 
&ELECTRONS
    conv_thr = 1.0d-8
/

CELL_PARAMETERS angstrom
     -1.4340091000     1.4340091000     1.4340091000
      1.4340091000    -1.4340091000     1.4340091000
      1.4340091000     1.4340091000    -1.4340091000

ATOMIC_SPECIES
Fe Fe.pbe-spn-kjpaw_psl.0.2.1.UPF

ATOMIC_POSITIONS crystal
Fe    -0.0000000000     0.0000000000     0.0000000000

K_POINTS crystal_b
43
0.00000000 0.00000000 0.00000000 1
0.07142857 -0.07142857 0.07142857 1
0.14285714 -0.14285714 0.14285714 1
0.21428571 -0.21428571 0.21428571 1
0.28571429 -0.28571429 0.28571429 1
0.35714286 -0.35714286 0.35714286 1
0.42857143 -0.42857143 0.42857143 1
0.50000000 -0.50000000 0.50000000 1
0.42857143 -0.42857143 0.50000000 1
0.35714286 -0.35714286 0.50000000 1
0.28571429 -0.28571429 0.50000000 1
0.21428571 -0.21428571 0.50000000 1
0.14285714 -0.14285714 0.50000000 1
0.07142857 -0.07142857 0.50000000 1
0.00000000 0.00000000 0.50000000 1
0.00000000 0.00000000 0.42857143 1
0.00000000 0.00000000 0.35714286 1
0.00000000 0.00000000 0.28571429 1
0.00000000 0.00000000 0.21428571 1
0.00000000 0.00000000 0.14285714 1
0.00000000 0.00000000 0.07142857 1
0.00000000 0.00000000 0.00000000 1
0.03571429 0.03571429 0.03571429 1
0.07142857 0.07142857 0.07142857 1
0.10714286 0.10714286 0.10714286 1
0.14285714 0.14285714 0.14285714 1
0.17857143 0.17857143 0.17857143 1
0.21428571 0.21428571 0.21428571 1
0.25000000 0.25000000 0.25000000 1
0.28571429 0.14285714 0.28571429 1
0.32142857 0.03571429 0.32142857 1
0.35714286 -0.07142857 0.35714286 1
0.39285714 -0.17857143 0.39285714 1
0.42857143 -0.28571429 0.42857143 1
0.46428571 -0.39285714 0.46428571 1
0.25000000 0.25000000 0.25000000 1
0.21428571 0.21428571 0.28571429 1
0.17857143 0.17857143 0.32142857 1
0.14285714 0.14285714 0.35714286 1
0.10714286 0.10714286 0.39285714 1
0.07142857 0.07142857 0.42857143 1
0.03571429 0.03571429 0.46428571 1
0.00000000 0.00000000 0.50000000 1

