
&CONTROL
    calculation = 'bands'
    prefix = 'qewan'
    outdir = './tmp'
    pseudo_dir = '/home/vinicius/scratch/data/pseudos/SSSP_1.3.0_PBE_efficiency'
/
&SYSTEM
    ibrav = 0
    nat = 1
    ntyp = 1
    ecutwfc = 40.0
    ecutrho = 160.0
    occupations = 'smearing'
    smearing = 'mv'
    degauss = 0.02
    nspin = 2
    starting_magnetization(1) = 0.0
/ 
&ELECTRONS
    conv_thr = 1.0d-8
/

CELL_PARAMETERS angstrom
     -1.4340091000     1.4340091000     1.4340091000
      1.4340091000    -1.4340091000     1.4340091000
      1.4340091000     1.4340091000    -1.4340091000

ATOMIC_SPECIES
Fe Fe.UPF

ATOMIC_POSITIONS crystal
Fe    -0.0000000000     0.0000000000     0.0000000000

K_POINTS crystal_b
61
0.00000000 0.00000000 0.00000000 1
0.05000000 -0.05000000 0.05000000 1
0.10000000 -0.10000000 0.10000000 1
0.15000000 -0.15000000 0.15000000 1
0.20000000 -0.20000000 0.20000000 1
0.25000000 -0.25000000 0.25000000 1
0.30000000 -0.30000000 0.30000000 1
0.35000000 -0.35000000 0.35000000 1
0.40000000 -0.40000000 0.40000000 1
0.45000000 -0.45000000 0.45000000 1
0.50000000 -0.50000000 0.50000000 1
0.45000000 -0.45000000 0.50000000 1
0.40000000 -0.40000000 0.50000000 1
0.35000000 -0.35000000 0.50000000 1
0.30000000 -0.30000000 0.50000000 1
0.25000000 -0.25000000 0.50000000 1
0.20000000 -0.20000000 0.50000000 1
0.15000000 -0.15000000 0.50000000 1
0.10000000 -0.10000000 0.50000000 1
0.05000000 -0.05000000 0.50000000 1
0.00000000 0.00000000 0.50000000 1
0.00000000 0.00000000 0.45000000 1
0.00000000 0.00000000 0.40000000 1
0.00000000 0.00000000 0.35000000 1
0.00000000 0.00000000 0.30000000 1
0.00000000 0.00000000 0.25000000 1
0.00000000 0.00000000 0.20000000 1
0.00000000 0.00000000 0.15000000 1
0.00000000 0.00000000 0.10000000 1
0.00000000 0.00000000 0.05000000 1
0.00000000 0.00000000 0.00000000 1
0.02500000 0.02500000 0.02500000 1
0.05000000 0.05000000 0.05000000 1
0.07500000 0.07500000 0.07500000 1
0.10000000 0.10000000 0.10000000 1
0.12500000 0.12500000 0.12500000 1
0.15000000 0.15000000 0.15000000 1
0.17500000 0.17500000 0.17500000 1
0.20000000 0.20000000 0.20000000 1
0.22500000 0.22500000 0.22500000 1
0.25000000 0.25000000 0.25000000 1
0.27500000 0.17500000 0.27500000 1
0.30000000 0.10000000 0.30000000 1
0.32500000 0.02500000 0.32500000 1
0.35000000 -0.05000000 0.35000000 1
0.37500000 -0.12500000 0.37500000 1
0.40000000 -0.20000000 0.40000000 1
0.42500000 -0.27500000 0.42500000 1
0.45000000 -0.35000000 0.45000000 1
0.47500000 -0.42500000 0.47500000 1
0.25000000 0.25000000 0.25000000 1
0.22500000 0.22500000 0.27500000 1
0.20000000 0.20000000 0.30000000 1
0.17500000 0.17500000 0.32500000 1
0.15000000 0.15000000 0.35000000 1
0.12500000 0.12500000 0.37500000 1
0.10000000 0.10000000 0.40000000 1
0.07500000 0.07500000 0.42500000 1
0.05000000 0.05000000 0.45000000 1
0.02500000 0.02500000 0.47500000 1
0.00000000 0.00000000 0.50000000 1

