

num_wann          =   10

bands_plot        = true
wannier_plot        = .false.
write_xyz           = .true.
write_hr            = .true.

auto_projections = .true.
dis_froz_proj = .true.
dis_proj_max =   0.95
dis_proj_min =   0.02

num_iter          = 400

dis_mix_ratio = 1.0

begin unit_cell_cart
angstrom
3.80600 0.00000 0.00000
0.00000 3.80600 0.00000
0.00000 0.00000 3.80600
end unit_cell_cart

begin atoms_frac
Sr  0.000  0.000  0.000
Mn  0.500  0.500  0.500
O  0.000  0.500  0.500
O  0.500  0.000  0.500
O  0.500  0.500  0.000
end atoms_frac

begin kpoint_path
GAMMA 0.0000 0.0000 0.0000	 X 0.0000 0.5000 0.0000
X 0.0000 0.5000 0.0000	 M 0.5000 0.5000 0.0000
M 0.5000 0.5000 0.0000	 GAMMA 0.0000 0.0000 0.0000
GAMMA 0.0000 0.0000 0.0000	 R 0.5000 0.5000 0.5000
R 0.5000 0.5000 0.5000	 X 0.0000 0.5000 0.0000
X 0.0000 0.5000 0.0000	 R 0.5000 0.5000 0.5000
R 0.5000 0.5000 0.5000	 M 0.5000 0.5000 0.0000
end kpoint_path

mp_grid           = 8 8 8
begin kpoints
  0.00000000  0.00000000  0.00000000
  0.00000000  0.00000000  0.12500000
  0.00000000  0.00000000  0.25000000
  0.00000000  0.00000000  0.37500000
  0.00000000  0.00000000  0.50000000
  0.00000000  0.00000000  0.62500000
  0.00000000  0.00000000  0.75000000
  0.00000000  0.00000000  0.87500000
  0.00000000  0.12500000  0.00000000
  0.00000000  0.12500000  0.12500000
  0.00000000  0.12500000  0.25000000
  0.00000000  0.12500000  0.37500000
  0.00000000  0.12500000  0.50000000
  0.00000000  0.12500000  0.62500000
  0.00000000  0.12500000  0.75000000
  0.00000000  0.12500000  0.87500000
  0.00000000  0.25000000  0.00000000
  0.00000000  0.25000000  0.12500000
  0.00000000  0.25000000  0.25000000
  0.00000000  0.25000000  0.37500000
  0.00000000  0.25000000  0.50000000
  0.00000000  0.25000000  0.62500000
  0.00000000  0.25000000  0.75000000
  0.00000000  0.25000000  0.87500000
  0.00000000  0.37500000  0.00000000
  0.00000000  0.37500000  0.12500000
  0.00000000  0.37500000  0.25000000
  0.00000000  0.37500000  0.37500000
  0.00000000  0.37500000  0.50000000
  0.00000000  0.37500000  0.62500000
  0.00000000  0.37500000  0.75000000
  0.00000000  0.37500000  0.87500000
  0.00000000  0.50000000  0.00000000
  0.00000000  0.50000000  0.12500000
  0.00000000  0.50000000  0.25000000
  0.00000000  0.50000000  0.37500000
  0.00000000  0.50000000  0.50000000
  0.00000000  0.50000000  0.62500000
  0.00000000  0.50000000  0.75000000
  0.00000000  0.50000000  0.87500000
  0.00000000  0.62500000  0.00000000
  0.00000000  0.62500000  0.12500000
  0.00000000  0.62500000  0.25000000
  0.00000000  0.62500000  0.37500000
  0.00000000  0.62500000  0.50000000
  0.00000000  0.62500000  0.62500000
  0.00000000  0.62500000  0.75000000
  0.00000000  0.62500000  0.87500000
  0.00000000  0.75000000  0.00000000
  0.00000000  0.75000000  0.12500000
  0.00000000  0.75000000  0.25000000
  0.00000000  0.75000000  0.37500000
  0.00000000  0.75000000  0.50000000
  0.00000000  0.75000000  0.62500000
  0.00000000  0.75000000  0.75000000
  0.00000000  0.75000000  0.87500000
  0.00000000  0.87500000  0.00000000
  0.00000000  0.87500000  0.12500000
  0.00000000  0.87500000  0.25000000
  0.00000000  0.87500000  0.37500000
  0.00000000  0.87500000  0.50000000
  0.00000000  0.87500000  0.62500000
  0.00000000  0.87500000  0.75000000
  0.00000000  0.87500000  0.87500000
  0.12500000  0.00000000  0.00000000
  0.12500000  0.00000000  0.12500000
  0.12500000  0.00000000  0.25000000
  0.12500000  0.00000000  0.37500000
  0.12500000  0.00000000  0.50000000
  0.12500000  0.00000000  0.62500000
  0.12500000  0.00000000  0.75000000
  0.12500000  0.00000000  0.87500000
  0.12500000  0.12500000  0.00000000
  0.12500000  0.12500000  0.12500000
  0.12500000  0.12500000  0.25000000
  0.12500000  0.12500000  0.37500000
  0.12500000  0.12500000  0.50000000
  0.12500000  0.12500000  0.62500000
  0.12500000  0.12500000  0.75000000
  0.12500000  0.12500000  0.87500000
  0.12500000  0.25000000  0.00000000
  0.12500000  0.25000000  0.12500000
  0.12500000  0.25000000  0.25000000
  0.12500000  0.25000000  0.37500000
  0.12500000  0.25000000  0.50000000
  0.12500000  0.25000000  0.62500000
  0.12500000  0.25000000  0.75000000
  0.12500000  0.25000000  0.87500000
  0.12500000  0.37500000  0.00000000
  0.12500000  0.37500000  0.12500000
  0.12500000  0.37500000  0.25000000
  0.12500000  0.37500000  0.37500000
  0.12500000  0.37500000  0.50000000
  0.12500000  0.37500000  0.62500000
  0.12500000  0.37500000  0.75000000
  0.12500000  0.37500000  0.87500000
  0.12500000  0.50000000  0.00000000
  0.12500000  0.50000000  0.12500000
  0.12500000  0.50000000  0.25000000
  0.12500000  0.50000000  0.37500000
  0.12500000  0.50000000  0.50000000
  0.12500000  0.50000000  0.62500000
  0.12500000  0.50000000  0.75000000
  0.12500000  0.50000000  0.87500000
  0.12500000  0.62500000  0.00000000
  0.12500000  0.62500000  0.12500000
  0.12500000  0.62500000  0.25000000
  0.12500000  0.62500000  0.37500000
  0.12500000  0.62500000  0.50000000
  0.12500000  0.62500000  0.62500000
  0.12500000  0.62500000  0.75000000
  0.12500000  0.62500000  0.87500000
  0.12500000  0.75000000  0.00000000
  0.12500000  0.75000000  0.12500000
  0.12500000  0.75000000  0.25000000
  0.12500000  0.75000000  0.37500000
  0.12500000  0.75000000  0.50000000
  0.12500000  0.75000000  0.62500000
  0.12500000  0.75000000  0.75000000
  0.12500000  0.75000000  0.87500000
  0.12500000  0.87500000  0.00000000
  0.12500000  0.87500000  0.12500000
  0.12500000  0.87500000  0.25000000
  0.12500000  0.87500000  0.37500000
  0.12500000  0.87500000  0.50000000
  0.12500000  0.87500000  0.62500000
  0.12500000  0.87500000  0.75000000
  0.12500000  0.87500000  0.87500000
  0.25000000  0.00000000  0.00000000
  0.25000000  0.00000000  0.12500000
  0.25000000  0.00000000  0.25000000
  0.25000000  0.00000000  0.37500000
  0.25000000  0.00000000  0.50000000
  0.25000000  0.00000000  0.62500000
  0.25000000  0.00000000  0.75000000
  0.25000000  0.00000000  0.87500000
  0.25000000  0.12500000  0.00000000
  0.25000000  0.12500000  0.12500000
  0.25000000  0.12500000  0.25000000
  0.25000000  0.12500000  0.37500000
  0.25000000  0.12500000  0.50000000
  0.25000000  0.12500000  0.62500000
  0.25000000  0.12500000  0.75000000
  0.25000000  0.12500000  0.87500000
  0.25000000  0.25000000  0.00000000
  0.25000000  0.25000000  0.12500000
  0.25000000  0.25000000  0.25000000
  0.25000000  0.25000000  0.37500000
  0.25000000  0.25000000  0.50000000
  0.25000000  0.25000000  0.62500000
  0.25000000  0.25000000  0.75000000
  0.25000000  0.25000000  0.87500000
  0.25000000  0.37500000  0.00000000
  0.25000000  0.37500000  0.12500000
  0.25000000  0.37500000  0.25000000
  0.25000000  0.37500000  0.37500000
  0.25000000  0.37500000  0.50000000
  0.25000000  0.37500000  0.62500000
  0.25000000  0.37500000  0.75000000
  0.25000000  0.37500000  0.87500000
  0.25000000  0.50000000  0.00000000
  0.25000000  0.50000000  0.12500000
  0.25000000  0.50000000  0.25000000
  0.25000000  0.50000000  0.37500000
  0.25000000  0.50000000  0.50000000
  0.25000000  0.50000000  0.62500000
  0.25000000  0.50000000  0.75000000
  0.25000000  0.50000000  0.87500000
  0.25000000  0.62500000  0.00000000
  0.25000000  0.62500000  0.12500000
  0.25000000  0.62500000  0.25000000
  0.25000000  0.62500000  0.37500000
  0.25000000  0.62500000  0.50000000
  0.25000000  0.62500000  0.62500000
  0.25000000  0.62500000  0.75000000
  0.25000000  0.62500000  0.87500000
  0.25000000  0.75000000  0.00000000
  0.25000000  0.75000000  0.12500000
  0.25000000  0.75000000  0.25000000
  0.25000000  0.75000000  0.37500000
  0.25000000  0.75000000  0.50000000
  0.25000000  0.75000000  0.62500000
  0.25000000  0.75000000  0.75000000
  0.25000000  0.75000000  0.87500000
  0.25000000  0.87500000  0.00000000
  0.25000000  0.87500000  0.12500000
  0.25000000  0.87500000  0.25000000
  0.25000000  0.87500000  0.37500000
  0.25000000  0.87500000  0.50000000
  0.25000000  0.87500000  0.62500000
  0.25000000  0.87500000  0.75000000
  0.25000000  0.87500000  0.87500000
  0.37500000  0.00000000  0.00000000
  0.37500000  0.00000000  0.12500000
  0.37500000  0.00000000  0.25000000
  0.37500000  0.00000000  0.37500000
  0.37500000  0.00000000  0.50000000
  0.37500000  0.00000000  0.62500000
  0.37500000  0.00000000  0.75000000
  0.37500000  0.00000000  0.87500000
  0.37500000  0.12500000  0.00000000
  0.37500000  0.12500000  0.12500000
  0.37500000  0.12500000  0.25000000
  0.37500000  0.12500000  0.37500000
  0.37500000  0.12500000  0.50000000
  0.37500000  0.12500000  0.62500000
  0.37500000  0.12500000  0.75000000
  0.37500000  0.12500000  0.87500000
  0.37500000  0.25000000  0.00000000
  0.37500000  0.25000000  0.12500000
  0.37500000  0.25000000  0.25000000
  0.37500000  0.25000000  0.37500000
  0.37500000  0.25000000  0.50000000
  0.37500000  0.25000000  0.62500000
  0.37500000  0.25000000  0.75000000
  0.37500000  0.25000000  0.87500000
  0.37500000  0.37500000  0.00000000
  0.37500000  0.37500000  0.12500000
  0.37500000  0.37500000  0.25000000
  0.37500000  0.37500000  0.37500000
  0.37500000  0.37500000  0.50000000
  0.37500000  0.37500000  0.62500000
  0.37500000  0.37500000  0.75000000
  0.37500000  0.37500000  0.87500000
  0.37500000  0.50000000  0.00000000
  0.37500000  0.50000000  0.12500000
  0.37500000  0.50000000  0.25000000
  0.37500000  0.50000000  0.37500000
  0.37500000  0.50000000  0.50000000
  0.37500000  0.50000000  0.62500000
  0.37500000  0.50000000  0.75000000
  0.37500000  0.50000000  0.87500000
  0.37500000  0.62500000  0.00000000
  0.37500000  0.62500000  0.12500000
  0.37500000  0.62500000  0.25000000
  0.37500000  0.62500000  0.37500000
  0.37500000  0.62500000  0.50000000
  0.37500000  0.62500000  0.62500000
  0.37500000  0.62500000  0.75000000
  0.37500000  0.62500000  0.87500000
  0.37500000  0.75000000  0.00000000
  0.37500000  0.75000000  0.12500000
  0.37500000  0.75000000  0.25000000
  0.37500000  0.75000000  0.37500000
  0.37500000  0.75000000  0.50000000
  0.37500000  0.75000000  0.62500000
  0.37500000  0.75000000  0.75000000
  0.37500000  0.75000000  0.87500000
  0.37500000  0.87500000  0.00000000
  0.37500000  0.87500000  0.12500000
  0.37500000  0.87500000  0.25000000
  0.37500000  0.87500000  0.37500000
  0.37500000  0.87500000  0.50000000
  0.37500000  0.87500000  0.62500000
  0.37500000  0.87500000  0.75000000
  0.37500000  0.87500000  0.87500000
  0.50000000  0.00000000  0.00000000
  0.50000000  0.00000000  0.12500000
  0.50000000  0.00000000  0.25000000
  0.50000000  0.00000000  0.37500000
  0.50000000  0.00000000  0.50000000
  0.50000000  0.00000000  0.62500000
  0.50000000  0.00000000  0.75000000
  0.50000000  0.00000000  0.87500000
  0.50000000  0.12500000  0.00000000
  0.50000000  0.12500000  0.12500000
  0.50000000  0.12500000  0.25000000
  0.50000000  0.12500000  0.37500000
  0.50000000  0.12500000  0.50000000
  0.50000000  0.12500000  0.62500000
  0.50000000  0.12500000  0.75000000
  0.50000000  0.12500000  0.87500000
  0.50000000  0.25000000  0.00000000
  0.50000000  0.25000000  0.12500000
  0.50000000  0.25000000  0.25000000
  0.50000000  0.25000000  0.37500000
  0.50000000  0.25000000  0.50000000
  0.50000000  0.25000000  0.62500000
  0.50000000  0.25000000  0.75000000
  0.50000000  0.25000000  0.87500000
  0.50000000  0.37500000  0.00000000
  0.50000000  0.37500000  0.12500000
  0.50000000  0.37500000  0.25000000
  0.50000000  0.37500000  0.37500000
  0.50000000  0.37500000  0.50000000
  0.50000000  0.37500000  0.62500000
  0.50000000  0.37500000  0.75000000
  0.50000000  0.37500000  0.87500000
  0.50000000  0.50000000  0.00000000
  0.50000000  0.50000000  0.12500000
  0.50000000  0.50000000  0.25000000
  0.50000000  0.50000000  0.37500000
  0.50000000  0.50000000  0.50000000
  0.50000000  0.50000000  0.62500000
  0.50000000  0.50000000  0.75000000
  0.50000000  0.50000000  0.87500000
  0.50000000  0.62500000  0.00000000
  0.50000000  0.62500000  0.12500000
  0.50000000  0.62500000  0.25000000
  0.50000000  0.62500000  0.37500000
  0.50000000  0.62500000  0.50000000
  0.50000000  0.62500000  0.62500000
  0.50000000  0.62500000  0.75000000
  0.50000000  0.62500000  0.87500000
  0.50000000  0.75000000  0.00000000
  0.50000000  0.75000000  0.12500000
  0.50000000  0.75000000  0.25000000
  0.50000000  0.75000000  0.37500000
  0.50000000  0.75000000  0.50000000
  0.50000000  0.75000000  0.62500000
  0.50000000  0.75000000  0.75000000
  0.50000000  0.75000000  0.87500000
  0.50000000  0.87500000  0.00000000
  0.50000000  0.87500000  0.12500000
  0.50000000  0.87500000  0.25000000
  0.50000000  0.87500000  0.37500000
  0.50000000  0.87500000  0.50000000
  0.50000000  0.87500000  0.62500000
  0.50000000  0.87500000  0.75000000
  0.50000000  0.87500000  0.87500000
  0.62500000  0.00000000  0.00000000
  0.62500000  0.00000000  0.12500000
  0.62500000  0.00000000  0.25000000
  0.62500000  0.00000000  0.37500000
  0.62500000  0.00000000  0.50000000
  0.62500000  0.00000000  0.62500000
  0.62500000  0.00000000  0.75000000
  0.62500000  0.00000000  0.87500000
  0.62500000  0.12500000  0.00000000
  0.62500000  0.12500000  0.12500000
  0.62500000  0.12500000  0.25000000
  0.62500000  0.12500000  0.37500000
  0.62500000  0.12500000  0.50000000
  0.62500000  0.12500000  0.62500000
  0.62500000  0.12500000  0.75000000
  0.62500000  0.12500000  0.87500000
  0.62500000  0.25000000  0.00000000
  0.62500000  0.25000000  0.12500000
  0.62500000  0.25000000  0.25000000
  0.62500000  0.25000000  0.37500000
  0.62500000  0.25000000  0.50000000
  0.62500000  0.25000000  0.62500000
  0.62500000  0.25000000  0.75000000
  0.62500000  0.25000000  0.87500000
  0.62500000  0.37500000  0.00000000
  0.62500000  0.37500000  0.12500000
  0.62500000  0.37500000  0.25000000
  0.62500000  0.37500000  0.37500000
  0.62500000  0.37500000  0.50000000
  0.62500000  0.37500000  0.62500000
  0.62500000  0.37500000  0.75000000
  0.62500000  0.37500000  0.87500000
  0.62500000  0.50000000  0.00000000
  0.62500000  0.50000000  0.12500000
  0.62500000  0.50000000  0.25000000
  0.62500000  0.50000000  0.37500000
  0.62500000  0.50000000  0.50000000
  0.62500000  0.50000000  0.62500000
  0.62500000  0.50000000  0.75000000
  0.62500000  0.50000000  0.87500000
  0.62500000  0.62500000  0.00000000
  0.62500000  0.62500000  0.12500000
  0.62500000  0.62500000  0.25000000
  0.62500000  0.62500000  0.37500000
  0.62500000  0.62500000  0.50000000
  0.62500000  0.62500000  0.62500000
  0.62500000  0.62500000  0.75000000
  0.62500000  0.62500000  0.87500000
  0.62500000  0.75000000  0.00000000
  0.62500000  0.75000000  0.12500000
  0.62500000  0.75000000  0.25000000
  0.62500000  0.75000000  0.37500000
  0.62500000  0.75000000  0.50000000
  0.62500000  0.75000000  0.62500000
  0.62500000  0.75000000  0.75000000
  0.62500000  0.75000000  0.87500000
  0.62500000  0.87500000  0.00000000
  0.62500000  0.87500000  0.12500000
  0.62500000  0.87500000  0.25000000
  0.62500000  0.87500000  0.37500000
  0.62500000  0.87500000  0.50000000
  0.62500000  0.87500000  0.62500000
  0.62500000  0.87500000  0.75000000
  0.62500000  0.87500000  0.87500000
  0.75000000  0.00000000  0.00000000
  0.75000000  0.00000000  0.12500000
  0.75000000  0.00000000  0.25000000
  0.75000000  0.00000000  0.37500000
  0.75000000  0.00000000  0.50000000
  0.75000000  0.00000000  0.62500000
  0.75000000  0.00000000  0.75000000
  0.75000000  0.00000000  0.87500000
  0.75000000  0.12500000  0.00000000
  0.75000000  0.12500000  0.12500000
  0.75000000  0.12500000  0.25000000
  0.75000000  0.12500000  0.37500000
  0.75000000  0.12500000  0.50000000
  0.75000000  0.12500000  0.62500000
  0.75000000  0.12500000  0.75000000
  0.75000000  0.12500000  0.87500000
  0.75000000  0.25000000  0.00000000
  0.75000000  0.25000000  0.12500000
  0.75000000  0.25000000  0.25000000
  0.75000000  0.25000000  0.37500000
  0.75000000  0.25000000  0.50000000
  0.75000000  0.25000000  0.62500000
  0.75000000  0.25000000  0.75000000
  0.75000000  0.25000000  0.87500000
  0.75000000  0.37500000  0.00000000
  0.75000000  0.37500000  0.12500000
  0.75000000  0.37500000  0.25000000
  0.75000000  0.37500000  0.37500000
  0.75000000  0.37500000  0.50000000
  0.75000000  0.37500000  0.62500000
  0.75000000  0.37500000  0.75000000
  0.75000000  0.37500000  0.87500000
  0.75000000  0.50000000  0.00000000
  0.75000000  0.50000000  0.12500000
  0.75000000  0.50000000  0.25000000
  0.75000000  0.50000000  0.37500000
  0.75000000  0.50000000  0.50000000
  0.75000000  0.50000000  0.62500000
  0.75000000  0.50000000  0.75000000
  0.75000000  0.50000000  0.87500000
  0.75000000  0.62500000  0.00000000
  0.75000000  0.62500000  0.12500000
  0.75000000  0.62500000  0.25000000
  0.75000000  0.62500000  0.37500000
  0.75000000  0.62500000  0.50000000
  0.75000000  0.62500000  0.62500000
  0.75000000  0.62500000  0.75000000
  0.75000000  0.62500000  0.87500000
  0.75000000  0.75000000  0.00000000
  0.75000000  0.75000000  0.12500000
  0.75000000  0.75000000  0.25000000
  0.75000000  0.75000000  0.37500000
  0.75000000  0.75000000  0.50000000
  0.75000000  0.75000000  0.62500000
  0.75000000  0.75000000  0.75000000
  0.75000000  0.75000000  0.87500000
  0.75000000  0.87500000  0.00000000
  0.75000000  0.87500000  0.12500000
  0.75000000  0.87500000  0.25000000
  0.75000000  0.87500000  0.37500000
  0.75000000  0.87500000  0.50000000
  0.75000000  0.87500000  0.62500000
  0.75000000  0.87500000  0.75000000
  0.75000000  0.87500000  0.87500000
  0.87500000  0.00000000  0.00000000
  0.87500000  0.00000000  0.12500000
  0.87500000  0.00000000  0.25000000
  0.87500000  0.00000000  0.37500000
  0.87500000  0.00000000  0.50000000
  0.87500000  0.00000000  0.62500000
  0.87500000  0.00000000  0.75000000
  0.87500000  0.00000000  0.87500000
  0.87500000  0.12500000  0.00000000
  0.87500000  0.12500000  0.12500000
  0.87500000  0.12500000  0.25000000
  0.87500000  0.12500000  0.37500000
  0.87500000  0.12500000  0.50000000
  0.87500000  0.12500000  0.62500000
  0.87500000  0.12500000  0.75000000
  0.87500000  0.12500000  0.87500000
  0.87500000  0.25000000  0.00000000
  0.87500000  0.25000000  0.12500000
  0.87500000  0.25000000  0.25000000
  0.87500000  0.25000000  0.37500000
  0.87500000  0.25000000  0.50000000
  0.87500000  0.25000000  0.62500000
  0.87500000  0.25000000  0.75000000
  0.87500000  0.25000000  0.87500000
  0.87500000  0.37500000  0.00000000
  0.87500000  0.37500000  0.12500000
  0.87500000  0.37500000  0.25000000
  0.87500000  0.37500000  0.37500000
  0.87500000  0.37500000  0.50000000
  0.87500000  0.37500000  0.62500000
  0.87500000  0.37500000  0.75000000
  0.87500000  0.37500000  0.87500000
  0.87500000  0.50000000  0.00000000
  0.87500000  0.50000000  0.12500000
  0.87500000  0.50000000  0.25000000
  0.87500000  0.50000000  0.37500000
  0.87500000  0.50000000  0.50000000
  0.87500000  0.50000000  0.62500000
  0.87500000  0.50000000  0.75000000
  0.87500000  0.50000000  0.87500000
  0.87500000  0.62500000  0.00000000
  0.87500000  0.62500000  0.12500000
  0.87500000  0.62500000  0.25000000
  0.87500000  0.62500000  0.37500000
  0.87500000  0.62500000  0.50000000
  0.87500000  0.62500000  0.62500000
  0.87500000  0.62500000  0.75000000
  0.87500000  0.62500000  0.87500000
  0.87500000  0.75000000  0.00000000
  0.87500000  0.75000000  0.12500000
  0.87500000  0.75000000  0.25000000
  0.87500000  0.75000000  0.37500000
  0.87500000  0.75000000  0.50000000
  0.87500000  0.75000000  0.62500000
  0.87500000  0.75000000  0.75000000
  0.87500000  0.75000000  0.87500000
  0.87500000  0.87500000  0.00000000
  0.87500000  0.87500000  0.12500000
  0.87500000  0.87500000  0.25000000
  0.87500000  0.87500000  0.37500000
  0.87500000  0.87500000  0.50000000
  0.87500000  0.87500000  0.62500000
  0.87500000  0.87500000  0.75000000
  0.87500000  0.87500000  0.87500000
end kpoints

