

num_wann          =   10

bands_plot        = true
wannier_plot        = .false.
write_xyz           = .true.
write_hr            = .true.

auto_projections = .true.
dis_froz_proj = .true.
dis_proj_max =   0.95
dis_proj_min =   0.02

num_iter          = 400

dis_mix_ratio = 1.0

begin unit_cell_cart
angstrom
-1.43401 1.43401 1.43401
1.43401 -1.43401 1.43401
1.43401 1.43401 -1.43401
end unit_cell_cart

begin atoms_frac
Fe  -0.000  0.000  0.000
end atoms_frac

begin kpoint_path
GAMMA 0.0000 0.0000 0.0000	 H 0.5000 -0.5000 0.5000
H 0.5000 -0.5000 0.5000	 N 0.0000 0.0000 0.5000
N 0.0000 0.0000 0.5000	 GAMMA 0.0000 0.0000 0.0000
GAMMA 0.0000 0.0000 0.0000	 P 0.2500 0.2500 0.2500
P 0.2500 0.2500 0.2500	 H 0.5000 -0.5000 0.5000
H 0.5000 -0.5000 0.5000	 P 0.2500 0.2500 0.2500
P 0.2500 0.2500 0.2500	 N 0.0000 0.0000 0.5000
end kpoint_path

mp_grid           = 6 6 6
begin kpoints
  0.00000000  0.00000000  0.00000000
  0.00000000  0.00000000  0.16666667
  0.00000000  0.00000000  0.33333333
  0.00000000  0.00000000  0.50000000
  0.00000000  0.00000000  0.66666667
  0.00000000  0.00000000  0.83333333
  0.00000000  0.16666667  0.00000000
  0.00000000  0.16666667  0.16666667
  0.00000000  0.16666667  0.33333333
  0.00000000  0.16666667  0.50000000
  0.00000000  0.16666667  0.66666667
  0.00000000  0.16666667  0.83333333
  0.00000000  0.33333333  0.00000000
  0.00000000  0.33333333  0.16666667
  0.00000000  0.33333333  0.33333333
  0.00000000  0.33333333  0.50000000
  0.00000000  0.33333333  0.66666667
  0.00000000  0.33333333  0.83333333
  0.00000000  0.50000000  0.00000000
  0.00000000  0.50000000  0.16666667
  0.00000000  0.50000000  0.33333333
  0.00000000  0.50000000  0.50000000
  0.00000000  0.50000000  0.66666667
  0.00000000  0.50000000  0.83333333
  0.00000000  0.66666667  0.00000000
  0.00000000  0.66666667  0.16666667
  0.00000000  0.66666667  0.33333333
  0.00000000  0.66666667  0.50000000
  0.00000000  0.66666667  0.66666667
  0.00000000  0.66666667  0.83333333
  0.00000000  0.83333333  0.00000000
  0.00000000  0.83333333  0.16666667
  0.00000000  0.83333333  0.33333333
  0.00000000  0.83333333  0.50000000
  0.00000000  0.83333333  0.66666667
  0.00000000  0.83333333  0.83333333
  0.16666667  0.00000000  0.00000000
  0.16666667  0.00000000  0.16666667
  0.16666667  0.00000000  0.33333333
  0.16666667  0.00000000  0.50000000
  0.16666667  0.00000000  0.66666667
  0.16666667  0.00000000  0.83333333
  0.16666667  0.16666667  0.00000000
  0.16666667  0.16666667  0.16666667
  0.16666667  0.16666667  0.33333333
  0.16666667  0.16666667  0.50000000
  0.16666667  0.16666667  0.66666667
  0.16666667  0.16666667  0.83333333
  0.16666667  0.33333333  0.00000000
  0.16666667  0.33333333  0.16666667
  0.16666667  0.33333333  0.33333333
  0.16666667  0.33333333  0.50000000
  0.16666667  0.33333333  0.66666667
  0.16666667  0.33333333  0.83333333
  0.16666667  0.50000000  0.00000000
  0.16666667  0.50000000  0.16666667
  0.16666667  0.50000000  0.33333333
  0.16666667  0.50000000  0.50000000
  0.16666667  0.50000000  0.66666667
  0.16666667  0.50000000  0.83333333
  0.16666667  0.66666667  0.00000000
  0.16666667  0.66666667  0.16666667
  0.16666667  0.66666667  0.33333333
  0.16666667  0.66666667  0.50000000
  0.16666667  0.66666667  0.66666667
  0.16666667  0.66666667  0.83333333
  0.16666667  0.83333333  0.00000000
  0.16666667  0.83333333  0.16666667
  0.16666667  0.83333333  0.33333333
  0.16666667  0.83333333  0.50000000
  0.16666667  0.83333333  0.66666667
  0.16666667  0.83333333  0.83333333
  0.33333333  0.00000000  0.00000000
  0.33333333  0.00000000  0.16666667
  0.33333333  0.00000000  0.33333333
  0.33333333  0.00000000  0.50000000
  0.33333333  0.00000000  0.66666667
  0.33333333  0.00000000  0.83333333
  0.33333333  0.16666667  0.00000000
  0.33333333  0.16666667  0.16666667
  0.33333333  0.16666667  0.33333333
  0.33333333  0.16666667  0.50000000
  0.33333333  0.16666667  0.66666667
  0.33333333  0.16666667  0.83333333
  0.33333333  0.33333333  0.00000000
  0.33333333  0.33333333  0.16666667
  0.33333333  0.33333333  0.33333333
  0.33333333  0.33333333  0.50000000
  0.33333333  0.33333333  0.66666667
  0.33333333  0.33333333  0.83333333
  0.33333333  0.50000000  0.00000000
  0.33333333  0.50000000  0.16666667
  0.33333333  0.50000000  0.33333333
  0.33333333  0.50000000  0.50000000
  0.33333333  0.50000000  0.66666667
  0.33333333  0.50000000  0.83333333
  0.33333333  0.66666667  0.00000000
  0.33333333  0.66666667  0.16666667
  0.33333333  0.66666667  0.33333333
  0.33333333  0.66666667  0.50000000
  0.33333333  0.66666667  0.66666667
  0.33333333  0.66666667  0.83333333
  0.33333333  0.83333333  0.00000000
  0.33333333  0.83333333  0.16666667
  0.33333333  0.83333333  0.33333333
  0.33333333  0.83333333  0.50000000
  0.33333333  0.83333333  0.66666667
  0.33333333  0.83333333  0.83333333
  0.50000000  0.00000000  0.00000000
  0.50000000  0.00000000  0.16666667
  0.50000000  0.00000000  0.33333333
  0.50000000  0.00000000  0.50000000
  0.50000000  0.00000000  0.66666667
  0.50000000  0.00000000  0.83333333
  0.50000000  0.16666667  0.00000000
  0.50000000  0.16666667  0.16666667
  0.50000000  0.16666667  0.33333333
  0.50000000  0.16666667  0.50000000
  0.50000000  0.16666667  0.66666667
  0.50000000  0.16666667  0.83333333
  0.50000000  0.33333333  0.00000000
  0.50000000  0.33333333  0.16666667
  0.50000000  0.33333333  0.33333333
  0.50000000  0.33333333  0.50000000
  0.50000000  0.33333333  0.66666667
  0.50000000  0.33333333  0.83333333
  0.50000000  0.50000000  0.00000000
  0.50000000  0.50000000  0.16666667
  0.50000000  0.50000000  0.33333333
  0.50000000  0.50000000  0.50000000
  0.50000000  0.50000000  0.66666667
  0.50000000  0.50000000  0.83333333
  0.50000000  0.66666667  0.00000000
  0.50000000  0.66666667  0.16666667
  0.50000000  0.66666667  0.33333333
  0.50000000  0.66666667  0.50000000
  0.50000000  0.66666667  0.66666667
  0.50000000  0.66666667  0.83333333
  0.50000000  0.83333333  0.00000000
  0.50000000  0.83333333  0.16666667
  0.50000000  0.83333333  0.33333333
  0.50000000  0.83333333  0.50000000
  0.50000000  0.83333333  0.66666667
  0.50000000  0.83333333  0.83333333
  0.66666667  0.00000000  0.00000000
  0.66666667  0.00000000  0.16666667
  0.66666667  0.00000000  0.33333333
  0.66666667  0.00000000  0.50000000
  0.66666667  0.00000000  0.66666667
  0.66666667  0.00000000  0.83333333
  0.66666667  0.16666667  0.00000000
  0.66666667  0.16666667  0.16666667
  0.66666667  0.16666667  0.33333333
  0.66666667  0.16666667  0.50000000
  0.66666667  0.16666667  0.66666667
  0.66666667  0.16666667  0.83333333
  0.66666667  0.33333333  0.00000000
  0.66666667  0.33333333  0.16666667
  0.66666667  0.33333333  0.33333333
  0.66666667  0.33333333  0.50000000
  0.66666667  0.33333333  0.66666667
  0.66666667  0.33333333  0.83333333
  0.66666667  0.50000000  0.00000000
  0.66666667  0.50000000  0.16666667
  0.66666667  0.50000000  0.33333333
  0.66666667  0.50000000  0.50000000
  0.66666667  0.50000000  0.66666667
  0.66666667  0.50000000  0.83333333
  0.66666667  0.66666667  0.00000000
  0.66666667  0.66666667  0.16666667
  0.66666667  0.66666667  0.33333333
  0.66666667  0.66666667  0.50000000
  0.66666667  0.66666667  0.66666667
  0.66666667  0.66666667  0.83333333
  0.66666667  0.83333333  0.00000000
  0.66666667  0.83333333  0.16666667
  0.66666667  0.83333333  0.33333333
  0.66666667  0.83333333  0.50000000
  0.66666667  0.83333333  0.66666667
  0.66666667  0.83333333  0.83333333
  0.83333333  0.00000000  0.00000000
  0.83333333  0.00000000  0.16666667
  0.83333333  0.00000000  0.33333333
  0.83333333  0.00000000  0.50000000
  0.83333333  0.00000000  0.66666667
  0.83333333  0.00000000  0.83333333
  0.83333333  0.16666667  0.00000000
  0.83333333  0.16666667  0.16666667
  0.83333333  0.16666667  0.33333333
  0.83333333  0.16666667  0.50000000
  0.83333333  0.16666667  0.66666667
  0.83333333  0.16666667  0.83333333
  0.83333333  0.33333333  0.00000000
  0.83333333  0.33333333  0.16666667
  0.83333333  0.33333333  0.33333333
  0.83333333  0.33333333  0.50000000
  0.83333333  0.33333333  0.66666667
  0.83333333  0.33333333  0.83333333
  0.83333333  0.50000000  0.00000000
  0.83333333  0.50000000  0.16666667
  0.83333333  0.50000000  0.33333333
  0.83333333  0.50000000  0.50000000
  0.83333333  0.50000000  0.66666667
  0.83333333  0.50000000  0.83333333
  0.83333333  0.66666667  0.00000000
  0.83333333  0.66666667  0.16666667
  0.83333333  0.66666667  0.33333333
  0.83333333  0.66666667  0.50000000
  0.83333333  0.66666667  0.66666667
  0.83333333  0.66666667  0.83333333
  0.83333333  0.83333333  0.00000000
  0.83333333  0.83333333  0.16666667
  0.83333333  0.83333333  0.33333333
  0.83333333  0.83333333  0.50000000
  0.83333333  0.83333333  0.66666667
  0.83333333  0.83333333  0.83333333
end kpoints

