&INPUTPP
  outdir = './tmp'
  prefix = 'qewan'
  seedname = 'qewan_up'
  atom_proj = .true.
  spin_component = 'up'
  write_mmn = .true.
  write_amn = .true.
  write_unk = .false.
/
