
&CONTROL
    calculation = 'nscf'
    prefix = 'qewan'
    outdir = './tmp'
    pseudo_dir = '/home/vinicius/scratch/data/pseudos/SSSP_1.3.0_PBE_efficiency'
/
&SYSTEM
    ibrav = 0
    nat = 5
    ntyp = 3
    ecutwfc = 40.0
    ecutrho = 160.0
    occupations = 'smearing'
    smearing = 'mv'
    degauss = 0.02
    nosym = .true.
    noinv = .true.
    nspin = 2
    starting_magnetization(1) = 0.0
    starting_magnetization(2) = 0.0
    starting_magnetization(3) = 0.0
/ 
&ELECTRONS
    conv_thr = 1.0d-8
/

CELL_PARAMETERS angstrom
      3.8060000000     0.0000000000     0.0000000000
      0.0000000000     3.8060000000     0.0000000000
      0.0000000000     0.0000000000     3.8060000000

ATOMIC_SPECIES
Sr Sr.UPF
Mn Mn.UPF
O O.UPF

ATOMIC_POSITIONS crystal
Sr     0.0000000000     0.0000000000     0.0000000000
Mn     0.5000000000     0.5000000000     0.5000000000
O     0.0000000000     0.5000000000     0.5000000000
O     0.5000000000     0.0000000000     0.5000000000
O     0.5000000000     0.5000000000     0.0000000000

K_POINTS crystal
512
0.00000000 0.00000000 0.00000000 0.00195312
0.00000000 0.00000000 0.12500000 0.00195312
0.00000000 0.00000000 0.25000000 0.00195312
0.00000000 0.00000000 0.37500000 0.00195312
0.00000000 0.00000000 0.50000000 0.00195312
0.00000000 0.00000000 0.62500000 0.00195312
0.00000000 0.00000000 0.75000000 0.00195312
0.00000000 0.00000000 0.87500000 0.00195312
0.00000000 0.12500000 0.00000000 0.00195312
0.00000000 0.12500000 0.12500000 0.00195312
0.00000000 0.12500000 0.25000000 0.00195312
0.00000000 0.12500000 0.37500000 0.00195312
0.00000000 0.12500000 0.50000000 0.00195312
0.00000000 0.12500000 0.62500000 0.00195312
0.00000000 0.12500000 0.75000000 0.00195312
0.00000000 0.12500000 0.87500000 0.00195312
0.00000000 0.25000000 0.00000000 0.00195312
0.00000000 0.25000000 0.12500000 0.00195312
0.00000000 0.25000000 0.25000000 0.00195312
0.00000000 0.25000000 0.37500000 0.00195312
0.00000000 0.25000000 0.50000000 0.00195312
0.00000000 0.25000000 0.62500000 0.00195312
0.00000000 0.25000000 0.75000000 0.00195312
0.00000000 0.25000000 0.87500000 0.00195312
0.00000000 0.37500000 0.00000000 0.00195312
0.00000000 0.37500000 0.12500000 0.00195312
0.00000000 0.37500000 0.25000000 0.00195312
0.00000000 0.37500000 0.37500000 0.00195312
0.00000000 0.37500000 0.50000000 0.00195312
0.00000000 0.37500000 0.62500000 0.00195312
0.00000000 0.37500000 0.75000000 0.00195312
0.00000000 0.37500000 0.87500000 0.00195312
0.00000000 0.50000000 0.00000000 0.00195312
0.00000000 0.50000000 0.12500000 0.00195312
0.00000000 0.50000000 0.25000000 0.00195312
0.00000000 0.50000000 0.37500000 0.00195312
0.00000000 0.50000000 0.50000000 0.00195312
0.00000000 0.50000000 0.62500000 0.00195312
0.00000000 0.50000000 0.75000000 0.00195312
0.00000000 0.50000000 0.87500000 0.00195312
0.00000000 0.62500000 0.00000000 0.00195312
0.00000000 0.62500000 0.12500000 0.00195312
0.00000000 0.62500000 0.25000000 0.00195312
0.00000000 0.62500000 0.37500000 0.00195312
0.00000000 0.62500000 0.50000000 0.00195312
0.00000000 0.62500000 0.62500000 0.00195312
0.00000000 0.62500000 0.75000000 0.00195312
0.00000000 0.62500000 0.87500000 0.00195312
0.00000000 0.75000000 0.00000000 0.00195312
0.00000000 0.75000000 0.12500000 0.00195312
0.00000000 0.75000000 0.25000000 0.00195312
0.00000000 0.75000000 0.37500000 0.00195312
0.00000000 0.75000000 0.50000000 0.00195312
0.00000000 0.75000000 0.62500000 0.00195312
0.00000000 0.75000000 0.75000000 0.00195312
0.00000000 0.75000000 0.87500000 0.00195312
0.00000000 0.87500000 0.00000000 0.00195312
0.00000000 0.87500000 0.12500000 0.00195312
0.00000000 0.87500000 0.25000000 0.00195312
0.00000000 0.87500000 0.37500000 0.00195312
0.00000000 0.87500000 0.50000000 0.00195312
0.00000000 0.87500000 0.62500000 0.00195312
0.00000000 0.87500000 0.75000000 0.00195312
0.00000000 0.87500000 0.87500000 0.00195312
0.12500000 0.00000000 0.00000000 0.00195312
0.12500000 0.00000000 0.12500000 0.00195312
0.12500000 0.00000000 0.25000000 0.00195312
0.12500000 0.00000000 0.37500000 0.00195312
0.12500000 0.00000000 0.50000000 0.00195312
0.12500000 0.00000000 0.62500000 0.00195312
0.12500000 0.00000000 0.75000000 0.00195312
0.12500000 0.00000000 0.87500000 0.00195312
0.12500000 0.12500000 0.00000000 0.00195312
0.12500000 0.12500000 0.12500000 0.00195312
0.12500000 0.12500000 0.25000000 0.00195312
0.12500000 0.12500000 0.37500000 0.00195312
0.12500000 0.12500000 0.50000000 0.00195312
0.12500000 0.12500000 0.62500000 0.00195312
0.12500000 0.12500000 0.75000000 0.00195312
0.12500000 0.12500000 0.87500000 0.00195312
0.12500000 0.25000000 0.00000000 0.00195312
0.12500000 0.25000000 0.12500000 0.00195312
0.12500000 0.25000000 0.25000000 0.00195312
0.12500000 0.25000000 0.37500000 0.00195312
0.12500000 0.25000000 0.50000000 0.00195312
0.12500000 0.25000000 0.62500000 0.00195312
0.12500000 0.25000000 0.75000000 0.00195312
0.12500000 0.25000000 0.87500000 0.00195312
0.12500000 0.37500000 0.00000000 0.00195312
0.12500000 0.37500000 0.12500000 0.00195312
0.12500000 0.37500000 0.25000000 0.00195312
0.12500000 0.37500000 0.37500000 0.00195312
0.12500000 0.37500000 0.50000000 0.00195312
0.12500000 0.37500000 0.62500000 0.00195312
0.12500000 0.37500000 0.75000000 0.00195312
0.12500000 0.37500000 0.87500000 0.00195312
0.12500000 0.50000000 0.00000000 0.00195312
0.12500000 0.50000000 0.12500000 0.00195312
0.12500000 0.50000000 0.25000000 0.00195312
0.12500000 0.50000000 0.37500000 0.00195312
0.12500000 0.50000000 0.50000000 0.00195312
0.12500000 0.50000000 0.62500000 0.00195312
0.12500000 0.50000000 0.75000000 0.00195312
0.12500000 0.50000000 0.87500000 0.00195312
0.12500000 0.62500000 0.00000000 0.00195312
0.12500000 0.62500000 0.12500000 0.00195312
0.12500000 0.62500000 0.25000000 0.00195312
0.12500000 0.62500000 0.37500000 0.00195312
0.12500000 0.62500000 0.50000000 0.00195312
0.12500000 0.62500000 0.62500000 0.00195312
0.12500000 0.62500000 0.75000000 0.00195312
0.12500000 0.62500000 0.87500000 0.00195312
0.12500000 0.75000000 0.00000000 0.00195312
0.12500000 0.75000000 0.12500000 0.00195312
0.12500000 0.75000000 0.25000000 0.00195312
0.12500000 0.75000000 0.37500000 0.00195312
0.12500000 0.75000000 0.50000000 0.00195312
0.12500000 0.75000000 0.62500000 0.00195312
0.12500000 0.75000000 0.75000000 0.00195312
0.12500000 0.75000000 0.87500000 0.00195312
0.12500000 0.87500000 0.00000000 0.00195312
0.12500000 0.87500000 0.12500000 0.00195312
0.12500000 0.87500000 0.25000000 0.00195312
0.12500000 0.87500000 0.37500000 0.00195312
0.12500000 0.87500000 0.50000000 0.00195312
0.12500000 0.87500000 0.62500000 0.00195312
0.12500000 0.87500000 0.75000000 0.00195312
0.12500000 0.87500000 0.87500000 0.00195312
0.25000000 0.00000000 0.00000000 0.00195312
0.25000000 0.00000000 0.12500000 0.00195312
0.25000000 0.00000000 0.25000000 0.00195312
0.25000000 0.00000000 0.37500000 0.00195312
0.25000000 0.00000000 0.50000000 0.00195312
0.25000000 0.00000000 0.62500000 0.00195312
0.25000000 0.00000000 0.75000000 0.00195312
0.25000000 0.00000000 0.87500000 0.00195312
0.25000000 0.12500000 0.00000000 0.00195312
0.25000000 0.12500000 0.12500000 0.00195312
0.25000000 0.12500000 0.25000000 0.00195312
0.25000000 0.12500000 0.37500000 0.00195312
0.25000000 0.12500000 0.50000000 0.00195312
0.25000000 0.12500000 0.62500000 0.00195312
0.25000000 0.12500000 0.75000000 0.00195312
0.25000000 0.12500000 0.87500000 0.00195312
0.25000000 0.25000000 0.00000000 0.00195312
0.25000000 0.25000000 0.12500000 0.00195312
0.25000000 0.25000000 0.25000000 0.00195312
0.25000000 0.25000000 0.37500000 0.00195312
0.25000000 0.25000000 0.50000000 0.00195312
0.25000000 0.25000000 0.62500000 0.00195312
0.25000000 0.25000000 0.75000000 0.00195312
0.25000000 0.25000000 0.87500000 0.00195312
0.25000000 0.37500000 0.00000000 0.00195312
0.25000000 0.37500000 0.12500000 0.00195312
0.25000000 0.37500000 0.25000000 0.00195312
0.25000000 0.37500000 0.37500000 0.00195312
0.25000000 0.37500000 0.50000000 0.00195312
0.25000000 0.37500000 0.62500000 0.00195312
0.25000000 0.37500000 0.75000000 0.00195312
0.25000000 0.37500000 0.87500000 0.00195312
0.25000000 0.50000000 0.00000000 0.00195312
0.25000000 0.50000000 0.12500000 0.00195312
0.25000000 0.50000000 0.25000000 0.00195312
0.25000000 0.50000000 0.37500000 0.00195312
0.25000000 0.50000000 0.50000000 0.00195312
0.25000000 0.50000000 0.62500000 0.00195312
0.25000000 0.50000000 0.75000000 0.00195312
0.25000000 0.50000000 0.87500000 0.00195312
0.25000000 0.62500000 0.00000000 0.00195312
0.25000000 0.62500000 0.12500000 0.00195312
0.25000000 0.62500000 0.25000000 0.00195312
0.25000000 0.62500000 0.37500000 0.00195312
0.25000000 0.62500000 0.50000000 0.00195312
0.25000000 0.62500000 0.62500000 0.00195312
0.25000000 0.62500000 0.75000000 0.00195312
0.25000000 0.62500000 0.87500000 0.00195312
0.25000000 0.75000000 0.00000000 0.00195312
0.25000000 0.75000000 0.12500000 0.00195312
0.25000000 0.75000000 0.25000000 0.00195312
0.25000000 0.75000000 0.37500000 0.00195312
0.25000000 0.75000000 0.50000000 0.00195312
0.25000000 0.75000000 0.62500000 0.00195312
0.25000000 0.75000000 0.75000000 0.00195312
0.25000000 0.75000000 0.87500000 0.00195312
0.25000000 0.87500000 0.00000000 0.00195312
0.25000000 0.87500000 0.12500000 0.00195312
0.25000000 0.87500000 0.25000000 0.00195312
0.25000000 0.87500000 0.37500000 0.00195312
0.25000000 0.87500000 0.50000000 0.00195312
0.25000000 0.87500000 0.62500000 0.00195312
0.25000000 0.87500000 0.75000000 0.00195312
0.25000000 0.87500000 0.87500000 0.00195312
0.37500000 0.00000000 0.00000000 0.00195312
0.37500000 0.00000000 0.12500000 0.00195312
0.37500000 0.00000000 0.25000000 0.00195312
0.37500000 0.00000000 0.37500000 0.00195312
0.37500000 0.00000000 0.50000000 0.00195312
0.37500000 0.00000000 0.62500000 0.00195312
0.37500000 0.00000000 0.75000000 0.00195312
0.37500000 0.00000000 0.87500000 0.00195312
0.37500000 0.12500000 0.00000000 0.00195312
0.37500000 0.12500000 0.12500000 0.00195312
0.37500000 0.12500000 0.25000000 0.00195312
0.37500000 0.12500000 0.37500000 0.00195312
0.37500000 0.12500000 0.50000000 0.00195312
0.37500000 0.12500000 0.62500000 0.00195312
0.37500000 0.12500000 0.75000000 0.00195312
0.37500000 0.12500000 0.87500000 0.00195312
0.37500000 0.25000000 0.00000000 0.00195312
0.37500000 0.25000000 0.12500000 0.00195312
0.37500000 0.25000000 0.25000000 0.00195312
0.37500000 0.25000000 0.37500000 0.00195312
0.37500000 0.25000000 0.50000000 0.00195312
0.37500000 0.25000000 0.62500000 0.00195312
0.37500000 0.25000000 0.75000000 0.00195312
0.37500000 0.25000000 0.87500000 0.00195312
0.37500000 0.37500000 0.00000000 0.00195312
0.37500000 0.37500000 0.12500000 0.00195312
0.37500000 0.37500000 0.25000000 0.00195312
0.37500000 0.37500000 0.37500000 0.00195312
0.37500000 0.37500000 0.50000000 0.00195312
0.37500000 0.37500000 0.62500000 0.00195312
0.37500000 0.37500000 0.75000000 0.00195312
0.37500000 0.37500000 0.87500000 0.00195312
0.37500000 0.50000000 0.00000000 0.00195312
0.37500000 0.50000000 0.12500000 0.00195312
0.37500000 0.50000000 0.25000000 0.00195312
0.37500000 0.50000000 0.37500000 0.00195312
0.37500000 0.50000000 0.50000000 0.00195312
0.37500000 0.50000000 0.62500000 0.00195312
0.37500000 0.50000000 0.75000000 0.00195312
0.37500000 0.50000000 0.87500000 0.00195312
0.37500000 0.62500000 0.00000000 0.00195312
0.37500000 0.62500000 0.12500000 0.00195312
0.37500000 0.62500000 0.25000000 0.00195312
0.37500000 0.62500000 0.37500000 0.00195312
0.37500000 0.62500000 0.50000000 0.00195312
0.37500000 0.62500000 0.62500000 0.00195312
0.37500000 0.62500000 0.75000000 0.00195312
0.37500000 0.62500000 0.87500000 0.00195312
0.37500000 0.75000000 0.00000000 0.00195312
0.37500000 0.75000000 0.12500000 0.00195312
0.37500000 0.75000000 0.25000000 0.00195312
0.37500000 0.75000000 0.37500000 0.00195312
0.37500000 0.75000000 0.50000000 0.00195312
0.37500000 0.75000000 0.62500000 0.00195312
0.37500000 0.75000000 0.75000000 0.00195312
0.37500000 0.75000000 0.87500000 0.00195312
0.37500000 0.87500000 0.00000000 0.00195312
0.37500000 0.87500000 0.12500000 0.00195312
0.37500000 0.87500000 0.25000000 0.00195312
0.37500000 0.87500000 0.37500000 0.00195312
0.37500000 0.87500000 0.50000000 0.00195312
0.37500000 0.87500000 0.62500000 0.00195312
0.37500000 0.87500000 0.75000000 0.00195312
0.37500000 0.87500000 0.87500000 0.00195312
0.50000000 0.00000000 0.00000000 0.00195312
0.50000000 0.00000000 0.12500000 0.00195312
0.50000000 0.00000000 0.25000000 0.00195312
0.50000000 0.00000000 0.37500000 0.00195312
0.50000000 0.00000000 0.50000000 0.00195312
0.50000000 0.00000000 0.62500000 0.00195312
0.50000000 0.00000000 0.75000000 0.00195312
0.50000000 0.00000000 0.87500000 0.00195312
0.50000000 0.12500000 0.00000000 0.00195312
0.50000000 0.12500000 0.12500000 0.00195312
0.50000000 0.12500000 0.25000000 0.00195312
0.50000000 0.12500000 0.37500000 0.00195312
0.50000000 0.12500000 0.50000000 0.00195312
0.50000000 0.12500000 0.62500000 0.00195312
0.50000000 0.12500000 0.75000000 0.00195312
0.50000000 0.12500000 0.87500000 0.00195312
0.50000000 0.25000000 0.00000000 0.00195312
0.50000000 0.25000000 0.12500000 0.00195312
0.50000000 0.25000000 0.25000000 0.00195312
0.50000000 0.25000000 0.37500000 0.00195312
0.50000000 0.25000000 0.50000000 0.00195312
0.50000000 0.25000000 0.62500000 0.00195312
0.50000000 0.25000000 0.75000000 0.00195312
0.50000000 0.25000000 0.87500000 0.00195312
0.50000000 0.37500000 0.00000000 0.00195312
0.50000000 0.37500000 0.12500000 0.00195312
0.50000000 0.37500000 0.25000000 0.00195312
0.50000000 0.37500000 0.37500000 0.00195312
0.50000000 0.37500000 0.50000000 0.00195312
0.50000000 0.37500000 0.62500000 0.00195312
0.50000000 0.37500000 0.75000000 0.00195312
0.50000000 0.37500000 0.87500000 0.00195312
0.50000000 0.50000000 0.00000000 0.00195312
0.50000000 0.50000000 0.12500000 0.00195312
0.50000000 0.50000000 0.25000000 0.00195312
0.50000000 0.50000000 0.37500000 0.00195312
0.50000000 0.50000000 0.50000000 0.00195312
0.50000000 0.50000000 0.62500000 0.00195312
0.50000000 0.50000000 0.75000000 0.00195312
0.50000000 0.50000000 0.87500000 0.00195312
0.50000000 0.62500000 0.00000000 0.00195312
0.50000000 0.62500000 0.12500000 0.00195312
0.50000000 0.62500000 0.25000000 0.00195312
0.50000000 0.62500000 0.37500000 0.00195312
0.50000000 0.62500000 0.50000000 0.00195312
0.50000000 0.62500000 0.62500000 0.00195312
0.50000000 0.62500000 0.75000000 0.00195312
0.50000000 0.62500000 0.87500000 0.00195312
0.50000000 0.75000000 0.00000000 0.00195312
0.50000000 0.75000000 0.12500000 0.00195312
0.50000000 0.75000000 0.25000000 0.00195312
0.50000000 0.75000000 0.37500000 0.00195312
0.50000000 0.75000000 0.50000000 0.00195312
0.50000000 0.75000000 0.62500000 0.00195312
0.50000000 0.75000000 0.75000000 0.00195312
0.50000000 0.75000000 0.87500000 0.00195312
0.50000000 0.87500000 0.00000000 0.00195312
0.50000000 0.87500000 0.12500000 0.00195312
0.50000000 0.87500000 0.25000000 0.00195312
0.50000000 0.87500000 0.37500000 0.00195312
0.50000000 0.87500000 0.50000000 0.00195312
0.50000000 0.87500000 0.62500000 0.00195312
0.50000000 0.87500000 0.75000000 0.00195312
0.50000000 0.87500000 0.87500000 0.00195312
0.62500000 0.00000000 0.00000000 0.00195312
0.62500000 0.00000000 0.12500000 0.00195312
0.62500000 0.00000000 0.25000000 0.00195312
0.62500000 0.00000000 0.37500000 0.00195312
0.62500000 0.00000000 0.50000000 0.00195312
0.62500000 0.00000000 0.62500000 0.00195312
0.62500000 0.00000000 0.75000000 0.00195312
0.62500000 0.00000000 0.87500000 0.00195312
0.62500000 0.12500000 0.00000000 0.00195312
0.62500000 0.12500000 0.12500000 0.00195312
0.62500000 0.12500000 0.25000000 0.00195312
0.62500000 0.12500000 0.37500000 0.00195312
0.62500000 0.12500000 0.50000000 0.00195312
0.62500000 0.12500000 0.62500000 0.00195312
0.62500000 0.12500000 0.75000000 0.00195312
0.62500000 0.12500000 0.87500000 0.00195312
0.62500000 0.25000000 0.00000000 0.00195312
0.62500000 0.25000000 0.12500000 0.00195312
0.62500000 0.25000000 0.25000000 0.00195312
0.62500000 0.25000000 0.37500000 0.00195312
0.62500000 0.25000000 0.50000000 0.00195312
0.62500000 0.25000000 0.62500000 0.00195312
0.62500000 0.25000000 0.75000000 0.00195312
0.62500000 0.25000000 0.87500000 0.00195312
0.62500000 0.37500000 0.00000000 0.00195312
0.62500000 0.37500000 0.12500000 0.00195312
0.62500000 0.37500000 0.25000000 0.00195312
0.62500000 0.37500000 0.37500000 0.00195312
0.62500000 0.37500000 0.50000000 0.00195312
0.62500000 0.37500000 0.62500000 0.00195312
0.62500000 0.37500000 0.75000000 0.00195312
0.62500000 0.37500000 0.87500000 0.00195312
0.62500000 0.50000000 0.00000000 0.00195312
0.62500000 0.50000000 0.12500000 0.00195312
0.62500000 0.50000000 0.25000000 0.00195312
0.62500000 0.50000000 0.37500000 0.00195312
0.62500000 0.50000000 0.50000000 0.00195312
0.62500000 0.50000000 0.62500000 0.00195312
0.62500000 0.50000000 0.75000000 0.00195312
0.62500000 0.50000000 0.87500000 0.00195312
0.62500000 0.62500000 0.00000000 0.00195312
0.62500000 0.62500000 0.12500000 0.00195312
0.62500000 0.62500000 0.25000000 0.00195312
0.62500000 0.62500000 0.37500000 0.00195312
0.62500000 0.62500000 0.50000000 0.00195312
0.62500000 0.62500000 0.62500000 0.00195312
0.62500000 0.62500000 0.75000000 0.00195312
0.62500000 0.62500000 0.87500000 0.00195312
0.62500000 0.75000000 0.00000000 0.00195312
0.62500000 0.75000000 0.12500000 0.00195312
0.62500000 0.75000000 0.25000000 0.00195312
0.62500000 0.75000000 0.37500000 0.00195312
0.62500000 0.75000000 0.50000000 0.00195312
0.62500000 0.75000000 0.62500000 0.00195312
0.62500000 0.75000000 0.75000000 0.00195312
0.62500000 0.75000000 0.87500000 0.00195312
0.62500000 0.87500000 0.00000000 0.00195312
0.62500000 0.87500000 0.12500000 0.00195312
0.62500000 0.87500000 0.25000000 0.00195312
0.62500000 0.87500000 0.37500000 0.00195312
0.62500000 0.87500000 0.50000000 0.00195312
0.62500000 0.87500000 0.62500000 0.00195312
0.62500000 0.87500000 0.75000000 0.00195312
0.62500000 0.87500000 0.87500000 0.00195312
0.75000000 0.00000000 0.00000000 0.00195312
0.75000000 0.00000000 0.12500000 0.00195312
0.75000000 0.00000000 0.25000000 0.00195312
0.75000000 0.00000000 0.37500000 0.00195312
0.75000000 0.00000000 0.50000000 0.00195312
0.75000000 0.00000000 0.62500000 0.00195312
0.75000000 0.00000000 0.75000000 0.00195312
0.75000000 0.00000000 0.87500000 0.00195312
0.75000000 0.12500000 0.00000000 0.00195312
0.75000000 0.12500000 0.12500000 0.00195312
0.75000000 0.12500000 0.25000000 0.00195312
0.75000000 0.12500000 0.37500000 0.00195312
0.75000000 0.12500000 0.50000000 0.00195312
0.75000000 0.12500000 0.62500000 0.00195312
0.75000000 0.12500000 0.75000000 0.00195312
0.75000000 0.12500000 0.87500000 0.00195312
0.75000000 0.25000000 0.00000000 0.00195312
0.75000000 0.25000000 0.12500000 0.00195312
0.75000000 0.25000000 0.25000000 0.00195312
0.75000000 0.25000000 0.37500000 0.00195312
0.75000000 0.25000000 0.50000000 0.00195312
0.75000000 0.25000000 0.62500000 0.00195312
0.75000000 0.25000000 0.75000000 0.00195312
0.75000000 0.25000000 0.87500000 0.00195312
0.75000000 0.37500000 0.00000000 0.00195312
0.75000000 0.37500000 0.12500000 0.00195312
0.75000000 0.37500000 0.25000000 0.00195312
0.75000000 0.37500000 0.37500000 0.00195312
0.75000000 0.37500000 0.50000000 0.00195312
0.75000000 0.37500000 0.62500000 0.00195312
0.75000000 0.37500000 0.75000000 0.00195312
0.75000000 0.37500000 0.87500000 0.00195312
0.75000000 0.50000000 0.00000000 0.00195312
0.75000000 0.50000000 0.12500000 0.00195312
0.75000000 0.50000000 0.25000000 0.00195312
0.75000000 0.50000000 0.37500000 0.00195312
0.75000000 0.50000000 0.50000000 0.00195312
0.75000000 0.50000000 0.62500000 0.00195312
0.75000000 0.50000000 0.75000000 0.00195312
0.75000000 0.50000000 0.87500000 0.00195312
0.75000000 0.62500000 0.00000000 0.00195312
0.75000000 0.62500000 0.12500000 0.00195312
0.75000000 0.62500000 0.25000000 0.00195312
0.75000000 0.62500000 0.37500000 0.00195312
0.75000000 0.62500000 0.50000000 0.00195312
0.75000000 0.62500000 0.62500000 0.00195312
0.75000000 0.62500000 0.75000000 0.00195312
0.75000000 0.62500000 0.87500000 0.00195312
0.75000000 0.75000000 0.00000000 0.00195312
0.75000000 0.75000000 0.12500000 0.00195312
0.75000000 0.75000000 0.25000000 0.00195312
0.75000000 0.75000000 0.37500000 0.00195312
0.75000000 0.75000000 0.50000000 0.00195312
0.75000000 0.75000000 0.62500000 0.00195312
0.75000000 0.75000000 0.75000000 0.00195312
0.75000000 0.75000000 0.87500000 0.00195312
0.75000000 0.87500000 0.00000000 0.00195312
0.75000000 0.87500000 0.12500000 0.00195312
0.75000000 0.87500000 0.25000000 0.00195312
0.75000000 0.87500000 0.37500000 0.00195312
0.75000000 0.87500000 0.50000000 0.00195312
0.75000000 0.87500000 0.62500000 0.00195312
0.75000000 0.87500000 0.75000000 0.00195312
0.75000000 0.87500000 0.87500000 0.00195312
0.87500000 0.00000000 0.00000000 0.00195312
0.87500000 0.00000000 0.12500000 0.00195312
0.87500000 0.00000000 0.25000000 0.00195312
0.87500000 0.00000000 0.37500000 0.00195312
0.87500000 0.00000000 0.50000000 0.00195312
0.87500000 0.00000000 0.62500000 0.00195312
0.87500000 0.00000000 0.75000000 0.00195312
0.87500000 0.00000000 0.87500000 0.00195312
0.87500000 0.12500000 0.00000000 0.00195312
0.87500000 0.12500000 0.12500000 0.00195312
0.87500000 0.12500000 0.25000000 0.00195312
0.87500000 0.12500000 0.37500000 0.00195312
0.87500000 0.12500000 0.50000000 0.00195312
0.87500000 0.12500000 0.62500000 0.00195312
0.87500000 0.12500000 0.75000000 0.00195312
0.87500000 0.12500000 0.87500000 0.00195312
0.87500000 0.25000000 0.00000000 0.00195312
0.87500000 0.25000000 0.12500000 0.00195312
0.87500000 0.25000000 0.25000000 0.00195312
0.87500000 0.25000000 0.37500000 0.00195312
0.87500000 0.25000000 0.50000000 0.00195312
0.87500000 0.25000000 0.62500000 0.00195312
0.87500000 0.25000000 0.75000000 0.00195312
0.87500000 0.25000000 0.87500000 0.00195312
0.87500000 0.37500000 0.00000000 0.00195312
0.87500000 0.37500000 0.12500000 0.00195312
0.87500000 0.37500000 0.25000000 0.00195312
0.87500000 0.37500000 0.37500000 0.00195312
0.87500000 0.37500000 0.50000000 0.00195312
0.87500000 0.37500000 0.62500000 0.00195312
0.87500000 0.37500000 0.75000000 0.00195312
0.87500000 0.37500000 0.87500000 0.00195312
0.87500000 0.50000000 0.00000000 0.00195312
0.87500000 0.50000000 0.12500000 0.00195312
0.87500000 0.50000000 0.25000000 0.00195312
0.87500000 0.50000000 0.37500000 0.00195312
0.87500000 0.50000000 0.50000000 0.00195312
0.87500000 0.50000000 0.62500000 0.00195312
0.87500000 0.50000000 0.75000000 0.00195312
0.87500000 0.50000000 0.87500000 0.00195312
0.87500000 0.62500000 0.00000000 0.00195312
0.87500000 0.62500000 0.12500000 0.00195312
0.87500000 0.62500000 0.25000000 0.00195312
0.87500000 0.62500000 0.37500000 0.00195312
0.87500000 0.62500000 0.50000000 0.00195312
0.87500000 0.62500000 0.62500000 0.00195312
0.87500000 0.62500000 0.75000000 0.00195312
0.87500000 0.62500000 0.87500000 0.00195312
0.87500000 0.75000000 0.00000000 0.00195312
0.87500000 0.75000000 0.12500000 0.00195312
0.87500000 0.75000000 0.25000000 0.00195312
0.87500000 0.75000000 0.37500000 0.00195312
0.87500000 0.75000000 0.50000000 0.00195312
0.87500000 0.75000000 0.62500000 0.00195312
0.87500000 0.75000000 0.75000000 0.00195312
0.87500000 0.75000000 0.87500000 0.00195312
0.87500000 0.87500000 0.00000000 0.00195312
0.87500000 0.87500000 0.12500000 0.00195312
0.87500000 0.87500000 0.25000000 0.00195312
0.87500000 0.87500000 0.37500000 0.00195312
0.87500000 0.87500000 0.50000000 0.00195312
0.87500000 0.87500000 0.62500000 0.00195312
0.87500000 0.87500000 0.75000000 0.00195312
0.87500000 0.87500000 0.87500000 0.00195312

