&inputpp
  prefix = 'Fe_bcc'
  outdir = './out'
  Emin = -10.0
  Emax = 10.0
  DeltaE = 0.1
/
