
&CONTROL
    calculation = 'nscf'
    prefix = 'qewan'
    outdir = './tmp'
    pseudo_dir = './pseudos'
/
&SYSTEM
    ibrav = 0
    nat = 1
    ntyp = 1
    ecutwfc = 40.0
    ecutrho = 160.0
    occupations = 'smearing'
    smearing = 'mv'
    degauss = 0.02
    nosym = .true.
    noinv = .true.
    nspin = 1
/ 
&ELECTRONS
    conv_thr = 1.0d-8
/

CELL_PARAMETERS angstrom
     -1.4340091000     1.4340091000     1.4340091000
      1.4340091000    -1.4340091000     1.4340091000
      1.4340091000     1.4340091000    -1.4340091000

ATOMIC_SPECIES
Fe Fe.UPF

ATOMIC_POSITIONS crystal
Fe    -0.0000000000     0.0000000000     0.0000000000

K_POINTS crystal
512
0.00000000 0.00000000 0.00000000 0.00195312
0.00000000 0.00000000 0.12500000 0.00195312
0.00000000 0.00000000 0.25000000 0.00195312
0.00000000 0.00000000 0.37500000 0.00195312
0.00000000 0.00000000 0.50000000 0.00195312
0.00000000 0.00000000 0.62500000 0.00195312
0.00000000 0.00000000 0.75000000 0.00195312
0.00000000 0.00000000 0.87500000 0.00195312
0.00000000 0.12500000 0.00000000 0.00195312
0.00000000 0.12500000 0.12500000 0.00195312
0.00000000 0.12500000 0.25000000 0.00195312
0.00000000 0.12500000 0.37500000 0.00195312
0.00000000 0.12500000 0.50000000 0.00195312
0.00000000 0.12500000 0.62500000 0.00195312
0.00000000 0.12500000 0.75000000 0.00195312
0.00000000 0.12500000 0.87500000 0.00195312
0.00000000 0.25000000 0.00000000 0.00195312
0.00000000 0.25000000 0.12500000 0.00195312
0.00000000 0.25000000 0.25000000 0.00195312
0.00000000 0.25000000 0.37500000 0.00195312
0.00000000 0.25000000 0.50000000 0.00195312
0.00000000 0.25000000 0.62500000 0.00195312
0.00000000 0.25000000 0.75000000 0.00195312
0.00000000 0.25000000 0.87500000 0.00195312
0.00000000 0.37500000 0.00000000 0.00195312
0.00000000 0.37500000 0.12500000 0.00195312
0.00000000 0.37500000 0.25000000 0.00195312
0.00000000 0.37500000 0.37500000 0.00195312
0.00000000 0.37500000 0.50000000 0.00195312
0.00000000 0.37500000 0.62500000 0.00195312
0.00000000 0.37500000 0.75000000 0.00195312
0.00000000 0.37500000 0.87500000 0.00195312
0.00000000 0.50000000 0.00000000 0.00195312
0.00000000 0.50000000 0.12500000 0.00195312
0.00000000 0.50000000 0.25000000 0.00195312
0.00000000 0.50000000 0.37500000 0.00195312
0.00000000 0.50000000 0.50000000 0.00195312
0.00000000 0.50000000 0.62500000 0.00195312
0.00000000 0.50000000 0.75000000 0.00195312
0.00000000 0.50000000 0.87500000 0.00195312
0.00000000 0.62500000 0.00000000 0.00195312
0.00000000 0.62500000 0.12500000 0.00195312
0.00000000 0.62500000 0.25000000 0.00195312
0.00000000 0.62500000 0.37500000 0.00195312
0.00000000 0.62500000 0.50000000 0.00195312
0.00000000 0.62500000 0.62500000 0.00195312
0.00000000 0.62500000 0.75000000 0.00195312
0.00000000 0.62500000 0.87500000 0.00195312
0.00000000 0.75000000 0.00000000 0.00195312
0.00000000 0.75000000 0.12500000 0.00195312
0.00000000 0.75000000 0.25000000 0.00195312
0.00000000 0.75000000 0.37500000 0.00195312
0.00000000 0.75000000 0.50000000 0.00195312
0.00000000 0.75000000 0.62500000 0.00195312
0.00000000 0.75000000 0.75000000 0.00195312
0.00000000 0.75000000 0.87500000 0.00195312
0.00000000 0.87500000 0.00000000 0.00195312
0.00000000 0.87500000 0.12500000 0.00195312
0.00000000 0.87500000 0.25000000 0.00195312
0.00000000 0.87500000 0.37500000 0.00195312
0.00000000 0.87500000 0.50000000 0.00195312
0.00000000 0.87500000 0.62500000 0.00195312
0.00000000 0.87500000 0.75000000 0.00195312
0.00000000 0.87500000 0.87500000 0.00195312
0.12500000 0.00000000 0.00000000 0.00195312
0.12500000 0.00000000 0.12500000 0.00195312
0.12500000 0.00000000 0.25000000 0.00195312
0.12500000 0.00000000 0.37500000 0.00195312
0.12500000 0.00000000 0.50000000 0.00195312
0.12500000 0.00000000 0.62500000 0.00195312
0.12500000 0.00000000 0.75000000 0.00195312
0.12500000 0.00000000 0.87500000 0.00195312
0.12500000 0.12500000 0.00000000 0.00195312
0.12500000 0.12500000 0.12500000 0.00195312
0.12500000 0.12500000 0.25000000 0.00195312
0.12500000 0.12500000 0.37500000 0.00195312
0.12500000 0.12500000 0.50000000 0.00195312
0.12500000 0.12500000 0.62500000 0.00195312
0.12500000 0.12500000 0.75000000 0.00195312
0.12500000 0.12500000 0.87500000 0.00195312
0.12500000 0.25000000 0.00000000 0.00195312
0.12500000 0.25000000 0.12500000 0.00195312
0.12500000 0.25000000 0.25000000 0.00195312
0.12500000 0.25000000 0.37500000 0.00195312
0.12500000 0.25000000 0.50000000 0.00195312
0.12500000 0.25000000 0.62500000 0.00195312
0.12500000 0.25000000 0.75000000 0.00195312
0.12500000 0.25000000 0.87500000 0.00195312
0.12500000 0.37500000 0.00000000 0.00195312
0.12500000 0.37500000 0.12500000 0.00195312
0.12500000 0.37500000 0.25000000 0.00195312
0.12500000 0.37500000 0.37500000 0.00195312
0.12500000 0.37500000 0.50000000 0.00195312
0.12500000 0.37500000 0.62500000 0.00195312
0.12500000 0.37500000 0.75000000 0.00195312
0.12500000 0.37500000 0.87500000 0.00195312
0.12500000 0.50000000 0.00000000 0.00195312
0.12500000 0.50000000 0.12500000 0.00195312
0.12500000 0.50000000 0.25000000 0.00195312
0.12500000 0.50000000 0.37500000 0.00195312
0.12500000 0.50000000 0.50000000 0.00195312
0.12500000 0.50000000 0.62500000 0.00195312
0.12500000 0.50000000 0.75000000 0.00195312
0.12500000 0.50000000 0.87500000 0.00195312
0.12500000 0.62500000 0.00000000 0.00195312
0.12500000 0.62500000 0.12500000 0.00195312
0.12500000 0.62500000 0.25000000 0.00195312
0.12500000 0.62500000 0.37500000 0.00195312
0.12500000 0.62500000 0.50000000 0.00195312
0.12500000 0.62500000 0.62500000 0.00195312
0.12500000 0.62500000 0.75000000 0.00195312
0.12500000 0.62500000 0.87500000 0.00195312
0.12500000 0.75000000 0.00000000 0.00195312
0.12500000 0.75000000 0.12500000 0.00195312
0.12500000 0.75000000 0.25000000 0.00195312
0.12500000 0.75000000 0.37500000 0.00195312
0.12500000 0.75000000 0.50000000 0.00195312
0.12500000 0.75000000 0.62500000 0.00195312
0.12500000 0.75000000 0.75000000 0.00195312
0.12500000 0.75000000 0.87500000 0.00195312
0.12500000 0.87500000 0.00000000 0.00195312
0.12500000 0.87500000 0.12500000 0.00195312
0.12500000 0.87500000 0.25000000 0.00195312
0.12500000 0.87500000 0.37500000 0.00195312
0.12500000 0.87500000 0.50000000 0.00195312
0.12500000 0.87500000 0.62500000 0.00195312
0.12500000 0.87500000 0.75000000 0.00195312
0.12500000 0.87500000 0.87500000 0.00195312
0.25000000 0.00000000 0.00000000 0.00195312
0.25000000 0.00000000 0.12500000 0.00195312
0.25000000 0.00000000 0.25000000 0.00195312
0.25000000 0.00000000 0.37500000 0.00195312
0.25000000 0.00000000 0.50000000 0.00195312
0.25000000 0.00000000 0.62500000 0.00195312
0.25000000 0.00000000 0.75000000 0.00195312
0.25000000 0.00000000 0.87500000 0.00195312
0.25000000 0.12500000 0.00000000 0.00195312
0.25000000 0.12500000 0.12500000 0.00195312
0.25000000 0.12500000 0.25000000 0.00195312
0.25000000 0.12500000 0.37500000 0.00195312
0.25000000 0.12500000 0.50000000 0.00195312
0.25000000 0.12500000 0.62500000 0.00195312
0.25000000 0.12500000 0.75000000 0.00195312
0.25000000 0.12500000 0.87500000 0.00195312
0.25000000 0.25000000 0.00000000 0.00195312
0.25000000 0.25000000 0.12500000 0.00195312
0.25000000 0.25000000 0.25000000 0.00195312
0.25000000 0.25000000 0.37500000 0.00195312
0.25000000 0.25000000 0.50000000 0.00195312
0.25000000 0.25000000 0.62500000 0.00195312
0.25000000 0.25000000 0.75000000 0.00195312
0.25000000 0.25000000 0.87500000 0.00195312
0.25000000 0.37500000 0.00000000 0.00195312
0.25000000 0.37500000 0.12500000 0.00195312
0.25000000 0.37500000 0.25000000 0.00195312
0.25000000 0.37500000 0.37500000 0.00195312
0.25000000 0.37500000 0.50000000 0.00195312
0.25000000 0.37500000 0.62500000 0.00195312
0.25000000 0.37500000 0.75000000 0.00195312
0.25000000 0.37500000 0.87500000 0.00195312
0.25000000 0.50000000 0.00000000 0.00195312
0.25000000 0.50000000 0.12500000 0.00195312
0.25000000 0.50000000 0.25000000 0.00195312
0.25000000 0.50000000 0.37500000 0.00195312
0.25000000 0.50000000 0.50000000 0.00195312
0.25000000 0.50000000 0.62500000 0.00195312
0.25000000 0.50000000 0.75000000 0.00195312
0.25000000 0.50000000 0.87500000 0.00195312
0.25000000 0.62500000 0.00000000 0.00195312
0.25000000 0.62500000 0.12500000 0.00195312
0.25000000 0.62500000 0.25000000 0.00195312
0.25000000 0.62500000 0.37500000 0.00195312
0.25000000 0.62500000 0.50000000 0.00195312
0.25000000 0.62500000 0.62500000 0.00195312
0.25000000 0.62500000 0.75000000 0.00195312
0.25000000 0.62500000 0.87500000 0.00195312
0.25000000 0.75000000 0.00000000 0.00195312
0.25000000 0.75000000 0.12500000 0.00195312
0.25000000 0.75000000 0.25000000 0.00195312
0.25000000 0.75000000 0.37500000 0.00195312
0.25000000 0.75000000 0.50000000 0.00195312
0.25000000 0.75000000 0.62500000 0.00195312
0.25000000 0.75000000 0.75000000 0.00195312
0.25000000 0.75000000 0.87500000 0.00195312
0.25000000 0.87500000 0.00000000 0.00195312
0.25000000 0.87500000 0.12500000 0.00195312
0.25000000 0.87500000 0.25000000 0.00195312
0.25000000 0.87500000 0.37500000 0.00195312
0.25000000 0.87500000 0.50000000 0.00195312
0.25000000 0.87500000 0.62500000 0.00195312
0.25000000 0.87500000 0.75000000 0.00195312
0.25000000 0.87500000 0.87500000 0.00195312
0.37500000 0.00000000 0.00000000 0.00195312
0.37500000 0.00000000 0.12500000 0.00195312
0.37500000 0.00000000 0.25000000 0.00195312
0.37500000 0.00000000 0.37500000 0.00195312
0.37500000 0.00000000 0.50000000 0.00195312
0.37500000 0.00000000 0.62500000 0.00195312
0.37500000 0.00000000 0.75000000 0.00195312
0.37500000 0.00000000 0.87500000 0.00195312
0.37500000 0.12500000 0.00000000 0.00195312
0.37500000 0.12500000 0.12500000 0.00195312
0.37500000 0.12500000 0.25000000 0.00195312
0.37500000 0.12500000 0.37500000 0.00195312
0.37500000 0.12500000 0.50000000 0.00195312
0.37500000 0.12500000 0.62500000 0.00195312
0.37500000 0.12500000 0.75000000 0.00195312
0.37500000 0.12500000 0.87500000 0.00195312
0.37500000 0.25000000 0.00000000 0.00195312
0.37500000 0.25000000 0.12500000 0.00195312
0.37500000 0.25000000 0.25000000 0.00195312
0.37500000 0.25000000 0.37500000 0.00195312
0.37500000 0.25000000 0.50000000 0.00195312
0.37500000 0.25000000 0.62500000 0.00195312
0.37500000 0.25000000 0.75000000 0.00195312
0.37500000 0.25000000 0.87500000 0.00195312
0.37500000 0.37500000 0.00000000 0.00195312
0.37500000 0.37500000 0.12500000 0.00195312
0.37500000 0.37500000 0.25000000 0.00195312
0.37500000 0.37500000 0.37500000 0.00195312
0.37500000 0.37500000 0.50000000 0.00195312
0.37500000 0.37500000 0.62500000 0.00195312
0.37500000 0.37500000 0.75000000 0.00195312
0.37500000 0.37500000 0.87500000 0.00195312
0.37500000 0.50000000 0.00000000 0.00195312
0.37500000 0.50000000 0.12500000 0.00195312
0.37500000 0.50000000 0.25000000 0.00195312
0.37500000 0.50000000 0.37500000 0.00195312
0.37500000 0.50000000 0.50000000 0.00195312
0.37500000 0.50000000 0.62500000 0.00195312
0.37500000 0.50000000 0.75000000 0.00195312
0.37500000 0.50000000 0.87500000 0.00195312
0.37500000 0.62500000 0.00000000 0.00195312
0.37500000 0.62500000 0.12500000 0.00195312
0.37500000 0.62500000 0.25000000 0.00195312
0.37500000 0.62500000 0.37500000 0.00195312
0.37500000 0.62500000 0.50000000 0.00195312
0.37500000 0.62500000 0.62500000 0.00195312
0.37500000 0.62500000 0.75000000 0.00195312
0.37500000 0.62500000 0.87500000 0.00195312
0.37500000 0.75000000 0.00000000 0.00195312
0.37500000 0.75000000 0.12500000 0.00195312
0.37500000 0.75000000 0.25000000 0.00195312
0.37500000 0.75000000 0.37500000 0.00195312
0.37500000 0.75000000 0.50000000 0.00195312
0.37500000 0.75000000 0.62500000 0.00195312
0.37500000 0.75000000 0.75000000 0.00195312
0.37500000 0.75000000 0.87500000 0.00195312
0.37500000 0.87500000 0.00000000 0.00195312
0.37500000 0.87500000 0.12500000 0.00195312
0.37500000 0.87500000 0.25000000 0.00195312
0.37500000 0.87500000 0.37500000 0.00195312
0.37500000 0.87500000 0.50000000 0.00195312
0.37500000 0.87500000 0.62500000 0.00195312
0.37500000 0.87500000 0.75000000 0.00195312
0.37500000 0.87500000 0.87500000 0.00195312
0.50000000 0.00000000 0.00000000 0.00195312
0.50000000 0.00000000 0.12500000 0.00195312
0.50000000 0.00000000 0.25000000 0.00195312
0.50000000 0.00000000 0.37500000 0.00195312
0.50000000 0.00000000 0.50000000 0.00195312
0.50000000 0.00000000 0.62500000 0.00195312
0.50000000 0.00000000 0.75000000 0.00195312
0.50000000 0.00000000 0.87500000 0.00195312
0.50000000 0.12500000 0.00000000 0.00195312
0.50000000 0.12500000 0.12500000 0.00195312
0.50000000 0.12500000 0.25000000 0.00195312
0.50000000 0.12500000 0.37500000 0.00195312
0.50000000 0.12500000 0.50000000 0.00195312
0.50000000 0.12500000 0.62500000 0.00195312
0.50000000 0.12500000 0.75000000 0.00195312
0.50000000 0.12500000 0.87500000 0.00195312
0.50000000 0.25000000 0.00000000 0.00195312
0.50000000 0.25000000 0.12500000 0.00195312
0.50000000 0.25000000 0.25000000 0.00195312
0.50000000 0.25000000 0.37500000 0.00195312
0.50000000 0.25000000 0.50000000 0.00195312
0.50000000 0.25000000 0.62500000 0.00195312
0.50000000 0.25000000 0.75000000 0.00195312
0.50000000 0.25000000 0.87500000 0.00195312
0.50000000 0.37500000 0.00000000 0.00195312
0.50000000 0.37500000 0.12500000 0.00195312
0.50000000 0.37500000 0.25000000 0.00195312
0.50000000 0.37500000 0.37500000 0.00195312
0.50000000 0.37500000 0.50000000 0.00195312
0.50000000 0.37500000 0.62500000 0.00195312
0.50000000 0.37500000 0.75000000 0.00195312
0.50000000 0.37500000 0.87500000 0.00195312
0.50000000 0.50000000 0.00000000 0.00195312
0.50000000 0.50000000 0.12500000 0.00195312
0.50000000 0.50000000 0.25000000 0.00195312
0.50000000 0.50000000 0.37500000 0.00195312
0.50000000 0.50000000 0.50000000 0.00195312
0.50000000 0.50000000 0.62500000 0.00195312
0.50000000 0.50000000 0.75000000 0.00195312
0.50000000 0.50000000 0.87500000 0.00195312
0.50000000 0.62500000 0.00000000 0.00195312
0.50000000 0.62500000 0.12500000 0.00195312
0.50000000 0.62500000 0.25000000 0.00195312
0.50000000 0.62500000 0.37500000 0.00195312
0.50000000 0.62500000 0.50000000 0.00195312
0.50000000 0.62500000 0.62500000 0.00195312
0.50000000 0.62500000 0.75000000 0.00195312
0.50000000 0.62500000 0.87500000 0.00195312
0.50000000 0.75000000 0.00000000 0.00195312
0.50000000 0.75000000 0.12500000 0.00195312
0.50000000 0.75000000 0.25000000 0.00195312
0.50000000 0.75000000 0.37500000 0.00195312
0.50000000 0.75000000 0.50000000 0.00195312
0.50000000 0.75000000 0.62500000 0.00195312
0.50000000 0.75000000 0.75000000 0.00195312
0.50000000 0.75000000 0.87500000 0.00195312
0.50000000 0.87500000 0.00000000 0.00195312
0.50000000 0.87500000 0.12500000 0.00195312
0.50000000 0.87500000 0.25000000 0.00195312
0.50000000 0.87500000 0.37500000 0.00195312
0.50000000 0.87500000 0.50000000 0.00195312
0.50000000 0.87500000 0.62500000 0.00195312
0.50000000 0.87500000 0.75000000 0.00195312
0.50000000 0.87500000 0.87500000 0.00195312
0.62500000 0.00000000 0.00000000 0.00195312
0.62500000 0.00000000 0.12500000 0.00195312
0.62500000 0.00000000 0.25000000 0.00195312
0.62500000 0.00000000 0.37500000 0.00195312
0.62500000 0.00000000 0.50000000 0.00195312
0.62500000 0.00000000 0.62500000 0.00195312
0.62500000 0.00000000 0.75000000 0.00195312
0.62500000 0.00000000 0.87500000 0.00195312
0.62500000 0.12500000 0.00000000 0.00195312
0.62500000 0.12500000 0.12500000 0.00195312
0.62500000 0.12500000 0.25000000 0.00195312
0.62500000 0.12500000 0.37500000 0.00195312
0.62500000 0.12500000 0.50000000 0.00195312
0.62500000 0.12500000 0.62500000 0.00195312
0.62500000 0.12500000 0.75000000 0.00195312
0.62500000 0.12500000 0.87500000 0.00195312
0.62500000 0.25000000 0.00000000 0.00195312
0.62500000 0.25000000 0.12500000 0.00195312
0.62500000 0.25000000 0.25000000 0.00195312
0.62500000 0.25000000 0.37500000 0.00195312
0.62500000 0.25000000 0.50000000 0.00195312
0.62500000 0.25000000 0.62500000 0.00195312
0.62500000 0.25000000 0.75000000 0.00195312
0.62500000 0.25000000 0.87500000 0.00195312
0.62500000 0.37500000 0.00000000 0.00195312
0.62500000 0.37500000 0.12500000 0.00195312
0.62500000 0.37500000 0.25000000 0.00195312
0.62500000 0.37500000 0.37500000 0.00195312
0.62500000 0.37500000 0.50000000 0.00195312
0.62500000 0.37500000 0.62500000 0.00195312
0.62500000 0.37500000 0.75000000 0.00195312
0.62500000 0.37500000 0.87500000 0.00195312
0.62500000 0.50000000 0.00000000 0.00195312
0.62500000 0.50000000 0.12500000 0.00195312
0.62500000 0.50000000 0.25000000 0.00195312
0.62500000 0.50000000 0.37500000 0.00195312
0.62500000 0.50000000 0.50000000 0.00195312
0.62500000 0.50000000 0.62500000 0.00195312
0.62500000 0.50000000 0.75000000 0.00195312
0.62500000 0.50000000 0.87500000 0.00195312
0.62500000 0.62500000 0.00000000 0.00195312
0.62500000 0.62500000 0.12500000 0.00195312
0.62500000 0.62500000 0.25000000 0.00195312
0.62500000 0.62500000 0.37500000 0.00195312
0.62500000 0.62500000 0.50000000 0.00195312
0.62500000 0.62500000 0.62500000 0.00195312
0.62500000 0.62500000 0.75000000 0.00195312
0.62500000 0.62500000 0.87500000 0.00195312
0.62500000 0.75000000 0.00000000 0.00195312
0.62500000 0.75000000 0.12500000 0.00195312
0.62500000 0.75000000 0.25000000 0.00195312
0.62500000 0.75000000 0.37500000 0.00195312
0.62500000 0.75000000 0.50000000 0.00195312
0.62500000 0.75000000 0.62500000 0.00195312
0.62500000 0.75000000 0.75000000 0.00195312
0.62500000 0.75000000 0.87500000 0.00195312
0.62500000 0.87500000 0.00000000 0.00195312
0.62500000 0.87500000 0.12500000 0.00195312
0.62500000 0.87500000 0.25000000 0.00195312
0.62500000 0.87500000 0.37500000 0.00195312
0.62500000 0.87500000 0.50000000 0.00195312
0.62500000 0.87500000 0.62500000 0.00195312
0.62500000 0.87500000 0.75000000 0.00195312
0.62500000 0.87500000 0.87500000 0.00195312
0.75000000 0.00000000 0.00000000 0.00195312
0.75000000 0.00000000 0.12500000 0.00195312
0.75000000 0.00000000 0.25000000 0.00195312
0.75000000 0.00000000 0.37500000 0.00195312
0.75000000 0.00000000 0.50000000 0.00195312
0.75000000 0.00000000 0.62500000 0.00195312
0.75000000 0.00000000 0.75000000 0.00195312
0.75000000 0.00000000 0.87500000 0.00195312
0.75000000 0.12500000 0.00000000 0.00195312
0.75000000 0.12500000 0.12500000 0.00195312
0.75000000 0.12500000 0.25000000 0.00195312
0.75000000 0.12500000 0.37500000 0.00195312
0.75000000 0.12500000 0.50000000 0.00195312
0.75000000 0.12500000 0.62500000 0.00195312
0.75000000 0.12500000 0.75000000 0.00195312
0.75000000 0.12500000 0.87500000 0.00195312
0.75000000 0.25000000 0.00000000 0.00195312
0.75000000 0.25000000 0.12500000 0.00195312
0.75000000 0.25000000 0.25000000 0.00195312
0.75000000 0.25000000 0.37500000 0.00195312
0.75000000 0.25000000 0.50000000 0.00195312
0.75000000 0.25000000 0.62500000 0.00195312
0.75000000 0.25000000 0.75000000 0.00195312
0.75000000 0.25000000 0.87500000 0.00195312
0.75000000 0.37500000 0.00000000 0.00195312
0.75000000 0.37500000 0.12500000 0.00195312
0.75000000 0.37500000 0.25000000 0.00195312
0.75000000 0.37500000 0.37500000 0.00195312
0.75000000 0.37500000 0.50000000 0.00195312
0.75000000 0.37500000 0.62500000 0.00195312
0.75000000 0.37500000 0.75000000 0.00195312
0.75000000 0.37500000 0.87500000 0.00195312
0.75000000 0.50000000 0.00000000 0.00195312
0.75000000 0.50000000 0.12500000 0.00195312
0.75000000 0.50000000 0.25000000 0.00195312
0.75000000 0.50000000 0.37500000 0.00195312
0.75000000 0.50000000 0.50000000 0.00195312
0.75000000 0.50000000 0.62500000 0.00195312
0.75000000 0.50000000 0.75000000 0.00195312
0.75000000 0.50000000 0.87500000 0.00195312
0.75000000 0.62500000 0.00000000 0.00195312
0.75000000 0.62500000 0.12500000 0.00195312
0.75000000 0.62500000 0.25000000 0.00195312
0.75000000 0.62500000 0.37500000 0.00195312
0.75000000 0.62500000 0.50000000 0.00195312
0.75000000 0.62500000 0.62500000 0.00195312
0.75000000 0.62500000 0.75000000 0.00195312
0.75000000 0.62500000 0.87500000 0.00195312
0.75000000 0.75000000 0.00000000 0.00195312
0.75000000 0.75000000 0.12500000 0.00195312
0.75000000 0.75000000 0.25000000 0.00195312
0.75000000 0.75000000 0.37500000 0.00195312
0.75000000 0.75000000 0.50000000 0.00195312
0.75000000 0.75000000 0.62500000 0.00195312
0.75000000 0.75000000 0.75000000 0.00195312
0.75000000 0.75000000 0.87500000 0.00195312
0.75000000 0.87500000 0.00000000 0.00195312
0.75000000 0.87500000 0.12500000 0.00195312
0.75000000 0.87500000 0.25000000 0.00195312
0.75000000 0.87500000 0.37500000 0.00195312
0.75000000 0.87500000 0.50000000 0.00195312
0.75000000 0.87500000 0.62500000 0.00195312
0.75000000 0.87500000 0.75000000 0.00195312
0.75000000 0.87500000 0.87500000 0.00195312
0.87500000 0.00000000 0.00000000 0.00195312
0.87500000 0.00000000 0.12500000 0.00195312
0.87500000 0.00000000 0.25000000 0.00195312
0.87500000 0.00000000 0.37500000 0.00195312
0.87500000 0.00000000 0.50000000 0.00195312
0.87500000 0.00000000 0.62500000 0.00195312
0.87500000 0.00000000 0.75000000 0.00195312
0.87500000 0.00000000 0.87500000 0.00195312
0.87500000 0.12500000 0.00000000 0.00195312
0.87500000 0.12500000 0.12500000 0.00195312
0.87500000 0.12500000 0.25000000 0.00195312
0.87500000 0.12500000 0.37500000 0.00195312
0.87500000 0.12500000 0.50000000 0.00195312
0.87500000 0.12500000 0.62500000 0.00195312
0.87500000 0.12500000 0.75000000 0.00195312
0.87500000 0.12500000 0.87500000 0.00195312
0.87500000 0.25000000 0.00000000 0.00195312
0.87500000 0.25000000 0.12500000 0.00195312
0.87500000 0.25000000 0.25000000 0.00195312
0.87500000 0.25000000 0.37500000 0.00195312
0.87500000 0.25000000 0.50000000 0.00195312
0.87500000 0.25000000 0.62500000 0.00195312
0.87500000 0.25000000 0.75000000 0.00195312
0.87500000 0.25000000 0.87500000 0.00195312
0.87500000 0.37500000 0.00000000 0.00195312
0.87500000 0.37500000 0.12500000 0.00195312
0.87500000 0.37500000 0.25000000 0.00195312
0.87500000 0.37500000 0.37500000 0.00195312
0.87500000 0.37500000 0.50000000 0.00195312
0.87500000 0.37500000 0.62500000 0.00195312
0.87500000 0.37500000 0.75000000 0.00195312
0.87500000 0.37500000 0.87500000 0.00195312
0.87500000 0.50000000 0.00000000 0.00195312
0.87500000 0.50000000 0.12500000 0.00195312
0.87500000 0.50000000 0.25000000 0.00195312
0.87500000 0.50000000 0.37500000 0.00195312
0.87500000 0.50000000 0.50000000 0.00195312
0.87500000 0.50000000 0.62500000 0.00195312
0.87500000 0.50000000 0.75000000 0.00195312
0.87500000 0.50000000 0.87500000 0.00195312
0.87500000 0.62500000 0.00000000 0.00195312
0.87500000 0.62500000 0.12500000 0.00195312
0.87500000 0.62500000 0.25000000 0.00195312
0.87500000 0.62500000 0.37500000 0.00195312
0.87500000 0.62500000 0.50000000 0.00195312
0.87500000 0.62500000 0.62500000 0.00195312
0.87500000 0.62500000 0.75000000 0.00195312
0.87500000 0.62500000 0.87500000 0.00195312
0.87500000 0.75000000 0.00000000 0.00195312
0.87500000 0.75000000 0.12500000 0.00195312
0.87500000 0.75000000 0.25000000 0.00195312
0.87500000 0.75000000 0.37500000 0.00195312
0.87500000 0.75000000 0.50000000 0.00195312
0.87500000 0.75000000 0.62500000 0.00195312
0.87500000 0.75000000 0.75000000 0.00195312
0.87500000 0.75000000 0.87500000 0.00195312
0.87500000 0.87500000 0.00000000 0.00195312
0.87500000 0.87500000 0.12500000 0.00195312
0.87500000 0.87500000 0.25000000 0.00195312
0.87500000 0.87500000 0.37500000 0.00195312
0.87500000 0.87500000 0.50000000 0.00195312
0.87500000 0.87500000 0.62500000 0.00195312
0.87500000 0.87500000 0.75000000 0.00195312
0.87500000 0.87500000 0.87500000 0.00195312

