
&CONTROL
    calculation = 'nscf'
    prefix = 'qewan'
    outdir = './tmp'
    pseudo_dir = '/home/vinicius/scratch/data/pseudos/SSSP_1.3.0_PBE_efficiency'
/
&SYSTEM
    ibrav = 0
    nat = 1
    ntyp = 1
    ecutwfc = 40.0
    ecutrho = 320.0
    occupations = 'smearing'
    smearing = 'mv'
    degauss = 0.02
    nosym = .true.
    noinv = .true.
    nspin = 1
/ 
&ELECTRONS
    conv_thr = 1.0d-8
/

CELL_PARAMETERS angstrom
     -1.4340091000     1.4340091000     1.4340091000
      1.4340091000    -1.4340091000     1.4340091000
      1.4340091000     1.4340091000    -1.4340091000

ATOMIC_SPECIES
Fe Fe.pbe-spn-kjpaw_psl.0.2.1.UPF

ATOMIC_POSITIONS crystal
Fe    -0.0000000000     0.0000000000     0.0000000000

K_POINTS crystal
216
0.00000000 0.00000000 0.00000000 0.00462963
0.00000000 0.00000000 0.16666667 0.00462963
0.00000000 0.00000000 0.33333333 0.00462963
0.00000000 0.00000000 0.50000000 0.00462963
0.00000000 0.00000000 0.66666667 0.00462963
0.00000000 0.00000000 0.83333333 0.00462963
0.00000000 0.16666667 0.00000000 0.00462963
0.00000000 0.16666667 0.16666667 0.00462963
0.00000000 0.16666667 0.33333333 0.00462963
0.00000000 0.16666667 0.50000000 0.00462963
0.00000000 0.16666667 0.66666667 0.00462963
0.00000000 0.16666667 0.83333333 0.00462963
0.00000000 0.33333333 0.00000000 0.00462963
0.00000000 0.33333333 0.16666667 0.00462963
0.00000000 0.33333333 0.33333333 0.00462963
0.00000000 0.33333333 0.50000000 0.00462963
0.00000000 0.33333333 0.66666667 0.00462963
0.00000000 0.33333333 0.83333333 0.00462963
0.00000000 0.50000000 0.00000000 0.00462963
0.00000000 0.50000000 0.16666667 0.00462963
0.00000000 0.50000000 0.33333333 0.00462963
0.00000000 0.50000000 0.50000000 0.00462963
0.00000000 0.50000000 0.66666667 0.00462963
0.00000000 0.50000000 0.83333333 0.00462963
0.00000000 0.66666667 0.00000000 0.00462963
0.00000000 0.66666667 0.16666667 0.00462963
0.00000000 0.66666667 0.33333333 0.00462963
0.00000000 0.66666667 0.50000000 0.00462963
0.00000000 0.66666667 0.66666667 0.00462963
0.00000000 0.66666667 0.83333333 0.00462963
0.00000000 0.83333333 0.00000000 0.00462963
0.00000000 0.83333333 0.16666667 0.00462963
0.00000000 0.83333333 0.33333333 0.00462963
0.00000000 0.83333333 0.50000000 0.00462963
0.00000000 0.83333333 0.66666667 0.00462963
0.00000000 0.83333333 0.83333333 0.00462963
0.16666667 0.00000000 0.00000000 0.00462963
0.16666667 0.00000000 0.16666667 0.00462963
0.16666667 0.00000000 0.33333333 0.00462963
0.16666667 0.00000000 0.50000000 0.00462963
0.16666667 0.00000000 0.66666667 0.00462963
0.16666667 0.00000000 0.83333333 0.00462963
0.16666667 0.16666667 0.00000000 0.00462963
0.16666667 0.16666667 0.16666667 0.00462963
0.16666667 0.16666667 0.33333333 0.00462963
0.16666667 0.16666667 0.50000000 0.00462963
0.16666667 0.16666667 0.66666667 0.00462963
0.16666667 0.16666667 0.83333333 0.00462963
0.16666667 0.33333333 0.00000000 0.00462963
0.16666667 0.33333333 0.16666667 0.00462963
0.16666667 0.33333333 0.33333333 0.00462963
0.16666667 0.33333333 0.50000000 0.00462963
0.16666667 0.33333333 0.66666667 0.00462963
0.16666667 0.33333333 0.83333333 0.00462963
0.16666667 0.50000000 0.00000000 0.00462963
0.16666667 0.50000000 0.16666667 0.00462963
0.16666667 0.50000000 0.33333333 0.00462963
0.16666667 0.50000000 0.50000000 0.00462963
0.16666667 0.50000000 0.66666667 0.00462963
0.16666667 0.50000000 0.83333333 0.00462963
0.16666667 0.66666667 0.00000000 0.00462963
0.16666667 0.66666667 0.16666667 0.00462963
0.16666667 0.66666667 0.33333333 0.00462963
0.16666667 0.66666667 0.50000000 0.00462963
0.16666667 0.66666667 0.66666667 0.00462963
0.16666667 0.66666667 0.83333333 0.00462963
0.16666667 0.83333333 0.00000000 0.00462963
0.16666667 0.83333333 0.16666667 0.00462963
0.16666667 0.83333333 0.33333333 0.00462963
0.16666667 0.83333333 0.50000000 0.00462963
0.16666667 0.83333333 0.66666667 0.00462963
0.16666667 0.83333333 0.83333333 0.00462963
0.33333333 0.00000000 0.00000000 0.00462963
0.33333333 0.00000000 0.16666667 0.00462963
0.33333333 0.00000000 0.33333333 0.00462963
0.33333333 0.00000000 0.50000000 0.00462963
0.33333333 0.00000000 0.66666667 0.00462963
0.33333333 0.00000000 0.83333333 0.00462963
0.33333333 0.16666667 0.00000000 0.00462963
0.33333333 0.16666667 0.16666667 0.00462963
0.33333333 0.16666667 0.33333333 0.00462963
0.33333333 0.16666667 0.50000000 0.00462963
0.33333333 0.16666667 0.66666667 0.00462963
0.33333333 0.16666667 0.83333333 0.00462963
0.33333333 0.33333333 0.00000000 0.00462963
0.33333333 0.33333333 0.16666667 0.00462963
0.33333333 0.33333333 0.33333333 0.00462963
0.33333333 0.33333333 0.50000000 0.00462963
0.33333333 0.33333333 0.66666667 0.00462963
0.33333333 0.33333333 0.83333333 0.00462963
0.33333333 0.50000000 0.00000000 0.00462963
0.33333333 0.50000000 0.16666667 0.00462963
0.33333333 0.50000000 0.33333333 0.00462963
0.33333333 0.50000000 0.50000000 0.00462963
0.33333333 0.50000000 0.66666667 0.00462963
0.33333333 0.50000000 0.83333333 0.00462963
0.33333333 0.66666667 0.00000000 0.00462963
0.33333333 0.66666667 0.16666667 0.00462963
0.33333333 0.66666667 0.33333333 0.00462963
0.33333333 0.66666667 0.50000000 0.00462963
0.33333333 0.66666667 0.66666667 0.00462963
0.33333333 0.66666667 0.83333333 0.00462963
0.33333333 0.83333333 0.00000000 0.00462963
0.33333333 0.83333333 0.16666667 0.00462963
0.33333333 0.83333333 0.33333333 0.00462963
0.33333333 0.83333333 0.50000000 0.00462963
0.33333333 0.83333333 0.66666667 0.00462963
0.33333333 0.83333333 0.83333333 0.00462963
0.50000000 0.00000000 0.00000000 0.00462963
0.50000000 0.00000000 0.16666667 0.00462963
0.50000000 0.00000000 0.33333333 0.00462963
0.50000000 0.00000000 0.50000000 0.00462963
0.50000000 0.00000000 0.66666667 0.00462963
0.50000000 0.00000000 0.83333333 0.00462963
0.50000000 0.16666667 0.00000000 0.00462963
0.50000000 0.16666667 0.16666667 0.00462963
0.50000000 0.16666667 0.33333333 0.00462963
0.50000000 0.16666667 0.50000000 0.00462963
0.50000000 0.16666667 0.66666667 0.00462963
0.50000000 0.16666667 0.83333333 0.00462963
0.50000000 0.33333333 0.00000000 0.00462963
0.50000000 0.33333333 0.16666667 0.00462963
0.50000000 0.33333333 0.33333333 0.00462963
0.50000000 0.33333333 0.50000000 0.00462963
0.50000000 0.33333333 0.66666667 0.00462963
0.50000000 0.33333333 0.83333333 0.00462963
0.50000000 0.50000000 0.00000000 0.00462963
0.50000000 0.50000000 0.16666667 0.00462963
0.50000000 0.50000000 0.33333333 0.00462963
0.50000000 0.50000000 0.50000000 0.00462963
0.50000000 0.50000000 0.66666667 0.00462963
0.50000000 0.50000000 0.83333333 0.00462963
0.50000000 0.66666667 0.00000000 0.00462963
0.50000000 0.66666667 0.16666667 0.00462963
0.50000000 0.66666667 0.33333333 0.00462963
0.50000000 0.66666667 0.50000000 0.00462963
0.50000000 0.66666667 0.66666667 0.00462963
0.50000000 0.66666667 0.83333333 0.00462963
0.50000000 0.83333333 0.00000000 0.00462963
0.50000000 0.83333333 0.16666667 0.00462963
0.50000000 0.83333333 0.33333333 0.00462963
0.50000000 0.83333333 0.50000000 0.00462963
0.50000000 0.83333333 0.66666667 0.00462963
0.50000000 0.83333333 0.83333333 0.00462963
0.66666667 0.00000000 0.00000000 0.00462963
0.66666667 0.00000000 0.16666667 0.00462963
0.66666667 0.00000000 0.33333333 0.00462963
0.66666667 0.00000000 0.50000000 0.00462963
0.66666667 0.00000000 0.66666667 0.00462963
0.66666667 0.00000000 0.83333333 0.00462963
0.66666667 0.16666667 0.00000000 0.00462963
0.66666667 0.16666667 0.16666667 0.00462963
0.66666667 0.16666667 0.33333333 0.00462963
0.66666667 0.16666667 0.50000000 0.00462963
0.66666667 0.16666667 0.66666667 0.00462963
0.66666667 0.16666667 0.83333333 0.00462963
0.66666667 0.33333333 0.00000000 0.00462963
0.66666667 0.33333333 0.16666667 0.00462963
0.66666667 0.33333333 0.33333333 0.00462963
0.66666667 0.33333333 0.50000000 0.00462963
0.66666667 0.33333333 0.66666667 0.00462963
0.66666667 0.33333333 0.83333333 0.00462963
0.66666667 0.50000000 0.00000000 0.00462963
0.66666667 0.50000000 0.16666667 0.00462963
0.66666667 0.50000000 0.33333333 0.00462963
0.66666667 0.50000000 0.50000000 0.00462963
0.66666667 0.50000000 0.66666667 0.00462963
0.66666667 0.50000000 0.83333333 0.00462963
0.66666667 0.66666667 0.00000000 0.00462963
0.66666667 0.66666667 0.16666667 0.00462963
0.66666667 0.66666667 0.33333333 0.00462963
0.66666667 0.66666667 0.50000000 0.00462963
0.66666667 0.66666667 0.66666667 0.00462963
0.66666667 0.66666667 0.83333333 0.00462963
0.66666667 0.83333333 0.00000000 0.00462963
0.66666667 0.83333333 0.16666667 0.00462963
0.66666667 0.83333333 0.33333333 0.00462963
0.66666667 0.83333333 0.50000000 0.00462963
0.66666667 0.83333333 0.66666667 0.00462963
0.66666667 0.83333333 0.83333333 0.00462963
0.83333333 0.00000000 0.00000000 0.00462963
0.83333333 0.00000000 0.16666667 0.00462963
0.83333333 0.00000000 0.33333333 0.00462963
0.83333333 0.00000000 0.50000000 0.00462963
0.83333333 0.00000000 0.66666667 0.00462963
0.83333333 0.00000000 0.83333333 0.00462963
0.83333333 0.16666667 0.00000000 0.00462963
0.83333333 0.16666667 0.16666667 0.00462963
0.83333333 0.16666667 0.33333333 0.00462963
0.83333333 0.16666667 0.50000000 0.00462963
0.83333333 0.16666667 0.66666667 0.00462963
0.83333333 0.16666667 0.83333333 0.00462963
0.83333333 0.33333333 0.00000000 0.00462963
0.83333333 0.33333333 0.16666667 0.00462963
0.83333333 0.33333333 0.33333333 0.00462963
0.83333333 0.33333333 0.50000000 0.00462963
0.83333333 0.33333333 0.66666667 0.00462963
0.83333333 0.33333333 0.83333333 0.00462963
0.83333333 0.50000000 0.00000000 0.00462963
0.83333333 0.50000000 0.16666667 0.00462963
0.83333333 0.50000000 0.33333333 0.00462963
0.83333333 0.50000000 0.50000000 0.00462963
0.83333333 0.50000000 0.66666667 0.00462963
0.83333333 0.50000000 0.83333333 0.00462963
0.83333333 0.66666667 0.00000000 0.00462963
0.83333333 0.66666667 0.16666667 0.00462963
0.83333333 0.66666667 0.33333333 0.00462963
0.83333333 0.66666667 0.50000000 0.00462963
0.83333333 0.66666667 0.66666667 0.00462963
0.83333333 0.66666667 0.83333333 0.00462963
0.83333333 0.83333333 0.00000000 0.00462963
0.83333333 0.83333333 0.16666667 0.00462963
0.83333333 0.83333333 0.33333333 0.00462963
0.83333333 0.83333333 0.50000000 0.00462963
0.83333333 0.83333333 0.66666667 0.00462963
0.83333333 0.83333333 0.83333333 0.00462963

